**
** Heading +++++++++++++++++++++++++++++++++++++++++++++++++
**
*Heading
Hash: q4KbbXcS, Date: 03/09/2026, Unit system: M_KG_S_C
**
** Nodes +++++++++++++++++++++++++++++++++++++++++++++++++++
**
*Node
1, -1.00000000E+000, 7.50000000E-002, -5.00000000E-002
2, -1.00000000E+000, -7.50000000E-002, -5.00000000E-002
3, 1.00000000E+000, -7.50000000E-002, -5.00000000E-002
4, 1.00000000E+000, 7.50000000E-002, -5.00000000E-002
5, 1.00000000E+000, -7.50000000E-002, 5.00000000E-002
6, 1.00000000E+000, 7.50000000E-002, 5.00000000E-002
7, -1.00000000E+000, -7.50000000E-002, 5.00000000E-002
8, -1.00000000E+000, 7.50000000E-002, 5.00000000E-002
9, -1.00000000E+000, 1.11022302E-016, -5.00000000E-002
10, -1.00000000E+000, 3.75000000E-002, -5.00000000E-002
11, -1.00000000E+000, -3.75000000E-002, -5.00000000E-002
12, -8.00000000E-001, -7.50000000E-002, -5.00000000E-002
13, -6.00000000E-001, -7.50000000E-002, -5.00000000E-002
14, -4.00000000E-001, -7.50000000E-002, -5.00000000E-002
15, -2.00000000E-001, -7.50000000E-002, -5.00000000E-002
16, 0.00000000E+000, -7.50000000E-002, -5.00000000E-002
17, 2.00000000E-001, -7.50000000E-002, -5.00000000E-002
18, 4.00000000E-001, -7.50000000E-002, -5.00000000E-002
19, 6.00000000E-001, -7.50000000E-002, -5.00000000E-002
20, 8.00000000E-001, -7.50000000E-002, -5.00000000E-002
21, -9.00000000E-001, -7.50000000E-002, -5.00000000E-002
22, -7.00000000E-001, -7.50000000E-002, -5.00000000E-002
23, -5.00000000E-001, -7.50000000E-002, -5.00000000E-002
24, -3.00000000E-001, -7.50000000E-002, -5.00000000E-002
25, -1.00000000E-001, -7.50000000E-002, -5.00000000E-002
26, 1.00000000E-001, -7.50000000E-002, -5.00000000E-002
27, 3.00000000E-001, -7.50000000E-002, -5.00000000E-002
28, 5.00000000E-001, -7.50000000E-002, -5.00000000E-002
29, 7.00000000E-001, -7.50000000E-002, -5.00000000E-002
30, 9.00000000E-001, -7.50000000E-002, -5.00000000E-002
31, 1.00000000E+000, 1.11022302E-016, -5.00000000E-002
32, 1.00000000E+000, 3.75000000E-002, -5.00000000E-002
33, 1.00000000E+000, -3.75000000E-002, -5.00000000E-002
34, -8.00000000E-001, 7.50000000E-002, -5.00000000E-002
35, -6.00000000E-001, 7.50000000E-002, -5.00000000E-002
36, -4.00000000E-001, 7.50000000E-002, -5.00000000E-002
37, -2.00000000E-001, 7.50000000E-002, -5.00000000E-002
38, 0.00000000E+000, 7.50000000E-002, -5.00000000E-002
39, 2.00000000E-001, 7.50000000E-002, -5.00000000E-002
40, 4.00000000E-001, 7.50000000E-002, -5.00000000E-002
41, 6.00000000E-001, 7.50000000E-002, -5.00000000E-002
42, 8.00000000E-001, 7.50000000E-002, -5.00000000E-002
43, -9.00000000E-001, 7.50000000E-002, -5.00000000E-002
44, -7.00000000E-001, 7.50000000E-002, -5.00000000E-002
45, -5.00000000E-001, 7.50000000E-002, -5.00000000E-002
46, -3.00000000E-001, 7.50000000E-002, -5.00000000E-002
47, -1.00000000E-001, 7.50000000E-002, -5.00000000E-002
48, 1.00000000E-001, 7.50000000E-002, -5.00000000E-002
49, 3.00000000E-001, 7.50000000E-002, -5.00000000E-002
50, 5.00000000E-001, 7.50000000E-002, -5.00000000E-002
51, 7.00000000E-001, 7.50000000E-002, -5.00000000E-002
52, 9.00000000E-001, 7.50000000E-002, -5.00000000E-002
53, 1.00000000E+000, -7.50000000E-002, 0.00000000E+000
54, 1.00000000E+000, 1.11022302E-016, 5.00000000E-002
55, 1.00000000E+000, 3.75000000E-002, 5.00000000E-002
56, 1.00000000E+000, -3.75000000E-002, 5.00000000E-002
57, 1.00000000E+000, 7.50000000E-002, 0.00000000E+000
58, 8.00000000E-001, -7.50000000E-002, 5.00000000E-002
59, 6.00000000E-001, -7.50000000E-002, 5.00000000E-002
60, 4.00000000E-001, -7.50000000E-002, 5.00000000E-002
61, 2.00000000E-001, -7.50000000E-002, 5.00000000E-002
62, 0.00000000E+000, -7.50000000E-002, 5.00000000E-002
63, -2.00000000E-001, -7.50000000E-002, 5.00000000E-002
64, -4.00000000E-001, -7.50000000E-002, 5.00000000E-002
65, -6.00000000E-001, -7.50000000E-002, 5.00000000E-002
66, -8.00000000E-001, -7.50000000E-002, 5.00000000E-002
67, 9.00000000E-001, -7.50000000E-002, 5.00000000E-002
68, 7.00000000E-001, -7.50000000E-002, 5.00000000E-002
69, 5.00000000E-001, -7.50000000E-002, 5.00000000E-002
70, 3.00000000E-001, -7.50000000E-002, 5.00000000E-002
71, 1.00000000E-001, -7.50000000E-002, 5.00000000E-002
72, -1.00000000E-001, -7.50000000E-002, 5.00000000E-002
73, -3.00000000E-001, -7.50000000E-002, 5.00000000E-002
74, -5.00000000E-001, -7.50000000E-002, 5.00000000E-002
75, -7.00000000E-001, -7.50000000E-002, 5.00000000E-002
76, -9.00000000E-001, -7.50000000E-002, 5.00000000E-002
77, -1.00000000E+000, 1.11022302E-016, 5.00000000E-002
78, -1.00000000E+000, 3.75000000E-002, 5.00000000E-002
79, -1.00000000E+000, -3.75000000E-002, 5.00000000E-002
80, 8.00000000E-001, 7.50000000E-002, 5.00000000E-002
81, 6.00000000E-001, 7.50000000E-002, 5.00000000E-002
82, 4.00000000E-001, 7.50000000E-002, 5.00000000E-002
83, 2.00000000E-001, 7.50000000E-002, 5.00000000E-002
84, 0.00000000E+000, 7.50000000E-002, 5.00000000E-002
85, -2.00000000E-001, 7.50000000E-002, 5.00000000E-002
86, -4.00000000E-001, 7.50000000E-002, 5.00000000E-002
87, -6.00000000E-001, 7.50000000E-002, 5.00000000E-002
88, -8.00000000E-001, 7.50000000E-002, 5.00000000E-002
89, 9.00000000E-001, 7.50000000E-002, 5.00000000E-002
90, 7.00000000E-001, 7.50000000E-002, 5.00000000E-002
91, 5.00000000E-001, 7.50000000E-002, 5.00000000E-002
92, 3.00000000E-001, 7.50000000E-002, 5.00000000E-002
93, 1.00000000E-001, 7.50000000E-002, 5.00000000E-002
94, -1.00000000E-001, 7.50000000E-002, 5.00000000E-002
95, -3.00000000E-001, 7.50000000E-002, 5.00000000E-002
96, -5.00000000E-001, 7.50000000E-002, 5.00000000E-002
97, -7.00000000E-001, 7.50000000E-002, 5.00000000E-002
98, -9.00000000E-001, 7.50000000E-002, 5.00000000E-002
99, -1.00000000E+000, -7.50000000E-002, 0.00000000E+000
100, -1.00000000E+000, 7.50000000E-002, 0.00000000E+000
101, -8.00000000E-001, 1.11022302E-016, -5.00000000E-002
102, -6.00000000E-001, 1.24900090E-016, -5.00000000E-002
103, -4.00000000E-001, 1.11022302E-016, -5.00000000E-002
104, -2.00000000E-001, 1.11022302E-016, -5.00000000E-002
105, 0.00000000E+000, 1.11022302E-016, -5.00000000E-002
106, 2.00000000E-001, 1.11022302E-016, -5.00000000E-002
107, 4.00000000E-001, 1.11022302E-016, -5.00000000E-002
108, 6.00000000E-001, 1.11022302E-016, -5.00000000E-002
109, 8.00000000E-001, 1.11022302E-016, -5.00000000E-002
110, -8.00000000E-001, 3.75000000E-002, -5.00000000E-002
111, -9.00000000E-001, 1.11022302E-016, -5.00000000E-002
112, -6.00000000E-001, 3.75000000E-002, -5.00000000E-002
113, -7.00000000E-001, 1.17961196E-016, -5.00000000E-002
114, -4.00000000E-001, 3.75000000E-002, -5.00000000E-002
115, -5.00000000E-001, 1.17961196E-016, -5.00000000E-002
116, -2.00000000E-001, 3.75000000E-002, -5.00000000E-002
117, -3.00000000E-001, 1.11022302E-016, -5.00000000E-002
118, 0.00000000E+000, 3.75000000E-002, -5.00000000E-002
119, -1.00000000E-001, 1.11022302E-016, -5.00000000E-002
120, 2.00000000E-001, 3.75000000E-002, -5.00000000E-002
121, 1.00000000E-001, 1.11022302E-016, -5.00000000E-002
122, 4.00000000E-001, 3.75000000E-002, -5.00000000E-002
123, 3.00000000E-001, 1.11022302E-016, -5.00000000E-002
124, 6.00000000E-001, 3.75000000E-002, -5.00000000E-002
125, 5.00000000E-001, 1.11022302E-016, -5.00000000E-002
126, 8.00000000E-001, 3.75000000E-002, -5.00000000E-002
127, 7.00000000E-001, 1.11022302E-016, -5.00000000E-002
128, 9.00000000E-001, 1.11022302E-016, -5.00000000E-002
129, -8.00000000E-001, -3.75000000E-002, -5.00000000E-002
130, -6.00000000E-001, -3.75000000E-002, -5.00000000E-002
131, -4.00000000E-001, -3.75000000E-002, -5.00000000E-002
132, -2.00000000E-001, -3.75000000E-002, -5.00000000E-002
133, 0.00000000E+000, -3.75000000E-002, -5.00000000E-002
134, 2.00000000E-001, -3.75000000E-002, -5.00000000E-002
135, 4.00000000E-001, -3.75000000E-002, -5.00000000E-002
136, 6.00000000E-001, -3.75000000E-002, -5.00000000E-002
137, 8.00000000E-001, -3.75000000E-002, -5.00000000E-002
138, 1.00000000E+000, 1.11022302E-016, 1.38777878E-017
139, 8.00000000E-001, 1.11022302E-016, 5.00000000E-002
140, 6.00000000E-001, 1.24900090E-016, 5.00000000E-002
141, 4.00000000E-001, 1.11022302E-016, 5.00000000E-002
142, 2.00000000E-001, 1.11022302E-016, 5.00000000E-002
143, 0.00000000E+000, 1.11022302E-016, 5.00000000E-002
144, -2.00000000E-001, 1.11022302E-016, 5.00000000E-002
145, -4.00000000E-001, 1.11022302E-016, 5.00000000E-002
146, -6.00000000E-001, 1.11022302E-016, 5.00000000E-002
147, -8.00000000E-001, 1.11022302E-016, 5.00000000E-002
148, 8.00000000E-001, 3.75000000E-002, 5.00000000E-002
149, 9.00000000E-001, 1.11022302E-016, 5.00000000E-002
150, 6.00000000E-001, 3.75000000E-002, 5.00000000E-002
151, 7.00000000E-001, 1.17961196E-016, 5.00000000E-002
152, 4.00000000E-001, 3.75000000E-002, 5.00000000E-002
153, 5.00000000E-001, 1.17961196E-016, 5.00000000E-002
154, 2.00000000E-001, 3.75000000E-002, 5.00000000E-002
155, 3.00000000E-001, 1.11022302E-016, 5.00000000E-002
156, 0.00000000E+000, 3.75000000E-002, 5.00000000E-002
157, 1.00000000E-001, 1.11022302E-016, 5.00000000E-002
158, -2.00000000E-001, 3.75000000E-002, 5.00000000E-002
159, -1.00000000E-001, 1.11022302E-016, 5.00000000E-002
160, -4.00000000E-001, 3.75000000E-002, 5.00000000E-002
161, -3.00000000E-001, 1.11022302E-016, 5.00000000E-002
162, -6.00000000E-001, 3.75000000E-002, 5.00000000E-002
163, -5.00000000E-001, 1.11022302E-016, 5.00000000E-002
164, -8.00000000E-001, 3.75000000E-002, 5.00000000E-002
165, -7.00000000E-001, 1.11022302E-016, 5.00000000E-002
166, -9.00000000E-001, 1.11022302E-016, 5.00000000E-002
167, 8.00000000E-001, -3.75000000E-002, 5.00000000E-002
168, 6.00000000E-001, -3.75000000E-002, 5.00000000E-002
169, 4.00000000E-001, -3.75000000E-002, 5.00000000E-002
170, 2.00000000E-001, -3.75000000E-002, 5.00000000E-002
171, 0.00000000E+000, -3.75000000E-002, 5.00000000E-002
172, -2.00000000E-001, -3.75000000E-002, 5.00000000E-002
173, -4.00000000E-001, -3.75000000E-002, 5.00000000E-002
174, -6.00000000E-001, -3.75000000E-002, 5.00000000E-002
175, -8.00000000E-001, -3.75000000E-002, 5.00000000E-002
176, -1.00000000E+000, 1.11022302E-016, 1.38777878E-017
177, -8.00000000E-001, 7.50000000E-002, 0.00000000E+000
178, -6.00000000E-001, 7.50000000E-002, 0.00000000E+000
179, -4.00000000E-001, 7.50000000E-002, 0.00000000E+000
180, -2.00000000E-001, 7.50000000E-002, 0.00000000E+000
181, 0.00000000E+000, 7.50000000E-002, 0.00000000E+000
182, 2.00000000E-001, 7.50000000E-002, 0.00000000E+000
183, 4.00000000E-001, 7.50000000E-002, 0.00000000E+000
184, 6.00000000E-001, 7.50000000E-002, 0.00000000E+000
185, 8.00000000E-001, 7.50000000E-002, 0.00000000E+000
186, -8.00000000E-001, -7.50000000E-002, 0.00000000E+000
187, -6.00000000E-001, -7.50000000E-002, 0.00000000E+000
188, -4.00000000E-001, -7.50000000E-002, 0.00000000E+000
189, -2.00000000E-001, -7.50000000E-002, 0.00000000E+000
190, 0.00000000E+000, -7.50000000E-002, 0.00000000E+000
191, 2.00000000E-001, -7.50000000E-002, 0.00000000E+000
192, 4.00000000E-001, -7.50000000E-002, 0.00000000E+000
193, 6.00000000E-001, -7.50000000E-002, 0.00000000E+000
194, 8.00000000E-001, -7.50000000E-002, 0.00000000E+000
195, -8.00000000E-001, 1.11022302E-016, 1.38777878E-017
196, -6.00000000E-001, 1.17961196E-016, 1.38777878E-017
197, -4.00000000E-001, 1.11022302E-016, 1.38777878E-017
198, -2.00000000E-001, 1.11022302E-016, 1.38777878E-017
199, 0.00000000E+000, 1.11022302E-016, 1.38777878E-017
200, 2.00000000E-001, 1.11022302E-016, 1.38777878E-017
201, 4.00000000E-001, 1.11022302E-016, 1.38777878E-017
202, 6.00000000E-001, 1.17961196E-016, 1.38777878E-017
203, 8.00000000E-001, 1.11022302E-016, 1.38777878E-017
**
** Elements ++++++++++++++++++++++++++++++++++++++++++++++++
**
*Element, Type=C3D20, Elset=Solid_part-1
1, 1, 9, 101, 34, 8, 77, 147, 88, 10, 111, 110, 43, 78, 166, 164,
98, 100, 176, 195, 177
2, 34, 101, 102, 35, 88, 147, 146, 87, 110, 113, 112, 44, 164, 165, 162,
97, 177, 195, 196, 178
3, 35, 102, 103, 36, 87, 146, 145, 86, 112, 115, 114, 45, 162, 163, 160,
96, 178, 196, 197, 179
4, 36, 103, 104, 37, 86, 145, 144, 85, 114, 117, 116, 46, 160, 161, 158,
95, 179, 197, 198, 180
5, 37, 104, 105, 38, 85, 144, 143, 84, 116, 119, 118, 47, 158, 159, 156,
94, 180, 198, 199, 181
6, 38, 105, 106, 39, 84, 143, 142, 83, 118, 121, 120, 48, 156, 157, 154,
93, 181, 199, 200, 182
7, 39, 106, 107, 40, 83, 142, 141, 82, 120, 123, 122, 49, 154, 155, 152,
92, 182, 200, 201, 183
8, 40, 107, 108, 41, 82, 141, 140, 81, 122, 125, 124, 50, 152, 153, 150,
91, 183, 201, 202, 184
9, 41, 108, 109, 42, 81, 140, 139, 80, 124, 127, 126, 51, 150, 151, 148,
90, 184, 202, 203, 185
10, 42, 109, 31, 4, 80, 139, 54, 6, 126, 128, 32, 52, 148, 149, 55,
89, 185, 203, 138, 57
11, 9, 2, 12, 101, 77, 7, 66, 147, 11, 21, 129, 111, 79, 76, 175,
166, 176, 99, 186, 195
12, 101, 12, 13, 102, 147, 66, 65, 146, 129, 22, 130, 113, 175, 75, 174,
165, 195, 186, 187, 196
13, 102, 13, 14, 103, 146, 65, 64, 145, 130, 23, 131, 115, 174, 74, 173,
163, 196, 187, 188, 197
14, 103, 14, 15, 104, 145, 64, 63, 144, 131, 24, 132, 117, 173, 73, 172,
161, 197, 188, 189, 198
15, 104, 15, 16, 105, 144, 63, 62, 143, 132, 25, 133, 119, 172, 72, 171,
159, 198, 189, 190, 199
16, 105, 16, 17, 106, 143, 62, 61, 142, 133, 26, 134, 121, 171, 71, 170,
157, 199, 190, 191, 200
17, 106, 17, 18, 107, 142, 61, 60, 141, 134, 27, 135, 123, 170, 70, 169,
155, 200, 191, 192, 201
18, 107, 18, 19, 108, 141, 60, 59, 140, 135, 28, 136, 125, 169, 69, 168,
153, 201, 192, 193, 202
19, 108, 19, 20, 109, 140, 59, 58, 139, 136, 29, 137, 127, 168, 68, 167,
151, 202, 193, 194, 203
20, 109, 20, 3, 31, 139, 58, 5, 54, 137, 30, 33, 128, 167, 67, 56,
149, 203, 194, 53, 138
**
** Node sets +++++++++++++++++++++++++++++++++++++++++++++++
**
*Nset, Nset=Internal_Selection-1_Fixed-1
1, 2, 7, 8, 9, 10, 11, 77, 78, 79, 99, 100, 176
*Nset, Nset=Internal-1_Internal_Selection-1_Surface_Traction-1
3, 4, 5, 6, 31, 32, 33, 53, 54, 55, 56, 57, 138
**
** Element sets ++++++++++++++++++++++++++++++++++++++++++++
**
*Elset, Elset=Internal_Selection-1_Solid_Section-1
Solid_part-1
*Elset, Elset=Internal-1_Internal_Selection-1_Surface_Traction-1_S5
10, 20
**
** Surfaces ++++++++++++++++++++++++++++++++++++++++++++++++
**
*Surface, Name=Internal_Selection-1_Surface_Traction-1, Type=Element
Internal-1_Internal_Selection-1_Surface_Traction-1_S5, S5
**
** Physical constants ++++++++++++++++++++++++++++++++++++++
**
**
** Coordinate systems ++++++++++++++++++++++++++++++++++++++
**
**
** Materials +++++++++++++++++++++++++++++++++++++++++++++++
**
*Material, Name=S235
*Density
7800
*Elastic
210000000000, 0.28
*Expansion, Zero=20
1.1E-05
*Conductivity
14
*Specific heat
440
**
** Sections ++++++++++++++++++++++++++++++++++++++++++++++++
**
*Solid section, Elset=Internal_Selection-1_Solid_Section-1, Material=S235
**
** Pre-tension sections ++++++++++++++++++++++++++++++++++++
**
**
** Constraints +++++++++++++++++++++++++++++++++++++++++++++
**
**
** Surface interactions ++++++++++++++++++++++++++++++++++++
**
**
** Contact pairs +++++++++++++++++++++++++++++++++++++++++++
**
**
** Amplitudes ++++++++++++++++++++++++++++++++++++++++++++++
**
**
** Initial conditions ++++++++++++++++++++++++++++++++++++++
**
**
** Steps +++++++++++++++++++++++++++++++++++++++++++++++++++
**
**
** Step-1 ++++++++++++++++++++++++++++++++++++++++++++++++++
**
*Step
*Static
**
** Controls ++++++++++++++++++++++++++++++++++++++++++++++++
**
**
** Output frequency ++++++++++++++++++++++++++++++++++++++++
**
**
** Boundary conditions +++++++++++++++++++++++++++++++++++++
**
*Boundary, op=New
** Name: Fixed-1
*Boundary
Internal_Selection-1_Fixed-1, 1, 6, 0
**
** Loads +++++++++++++++++++++++++++++++++++++++++++++++++++
**
*Cload, op=New
*Dload, op=New
** Name: Surface_Traction-1
*Cload
31, 2, 83.3333333333333
54, 2, 83.3333333333333
6, 2, 41.6666666666666
4, 2, 41.6666666666666
138, 2, -3.33333333E+002
55, 2, -1.66666667E+002
57, 2, -1.66666667E+002
32, 2, -1.66666667E+002
3, 2, 41.6666666666667
5, 2, 41.6666666666667
53, 2, -1.66666667E+002
56, 2, -1.66666667E+002
33, 2, -1.66666667E+002
**
** Defined fields ++++++++++++++++++++++++++++++++++++++++++
**
**
** History outputs +++++++++++++++++++++++++++++++++++++++++
**
**
** Field outputs +++++++++++++++++++++++++++++++++++++++++++
**
*Node file
RF, U
*El file
S, E, NOE
**
** End step ++++++++++++++++++++++++++++++++++++++++++++++++
**
*End step
