**
** Heading +++++++++++++++++++++++++++++++++++++++++++++++++
**
*Heading
Hash: 9lAXveLf, Date: 03/15/2026, Unit system: M_KG_S_C
**
** Nodes +++++++++++++++++++++++++++++++++++++++++++++++++++
**
*Node
1, -1.00000000E+000, 5.00000000E-002, -5.00000000E-002
2, -1.00000000E+000, -5.00000000E-002, -5.00000000E-002
3, 1.00000000E+000, -5.00000000E-002, -5.00000000E-002
4, 1.00000000E+000, 5.00000000E-002, -5.00000000E-002
5, 1.00000000E+000, -5.00000000E-002, 5.00000000E-002
6, 1.00000000E+000, 5.00000000E-002, 5.00000000E-002
7, -1.00000000E+000, -5.00000000E-002, 5.00000000E-002
8, -1.00000000E+000, 5.00000000E-002, 5.00000000E-002
9, -1.00000000E+000, -3.46944695E-017, -5.00000000E-002
10, -1.00000000E+000, 2.50000000E-002, -5.00000000E-002
11, -1.00000000E+000, -2.50000000E-002, -5.00000000E-002
12, -8.00000000E-001, -5.00000000E-002, -5.00000000E-002
13, -6.00000000E-001, -5.00000000E-002, -5.00000000E-002
14, -4.00000000E-001, -5.00000000E-002, -5.00000000E-002
15, -2.00000000E-001, -5.00000000E-002, -5.00000000E-002
16, 0.00000000E+000, -5.00000000E-002, -5.00000000E-002
17, 2.00000000E-001, -5.00000000E-002, -5.00000000E-002
18, 4.00000000E-001, -5.00000000E-002, -5.00000000E-002
19, 6.00000000E-001, -5.00000000E-002, -5.00000000E-002
20, 8.00000000E-001, -5.00000000E-002, -5.00000000E-002
21, -9.00000000E-001, -5.00000000E-002, -5.00000000E-002
22, -7.00000000E-001, -5.00000000E-002, -5.00000000E-002
23, -5.00000000E-001, -5.00000000E-002, -5.00000000E-002
24, -3.00000000E-001, -5.00000000E-002, -5.00000000E-002
25, -1.00000000E-001, -5.00000000E-002, -5.00000000E-002
26, 1.00000000E-001, -5.00000000E-002, -5.00000000E-002
27, 3.00000000E-001, -5.00000000E-002, -5.00000000E-002
28, 5.00000000E-001, -5.00000000E-002, -5.00000000E-002
29, 7.00000000E-001, -5.00000000E-002, -5.00000000E-002
30, 9.00000000E-001, -5.00000000E-002, -5.00000000E-002
31, 1.00000000E+000, -3.46944695E-017, -5.00000000E-002
32, 1.00000000E+000, 2.50000000E-002, -5.00000000E-002
33, 1.00000000E+000, -2.50000000E-002, -5.00000000E-002
34, -8.00000000E-001, 5.00000000E-002, -5.00000000E-002
35, -6.00000000E-001, 5.00000000E-002, -5.00000000E-002
36, -4.00000000E-001, 5.00000000E-002, -5.00000000E-002
37, -2.00000000E-001, 5.00000000E-002, -5.00000000E-002
38, 0.00000000E+000, 5.00000000E-002, -5.00000000E-002
39, 2.00000000E-001, 5.00000000E-002, -5.00000000E-002
40, 4.00000000E-001, 5.00000000E-002, -5.00000000E-002
41, 6.00000000E-001, 5.00000000E-002, -5.00000000E-002
42, 8.00000000E-001, 5.00000000E-002, -5.00000000E-002
43, -9.00000000E-001, 5.00000000E-002, -5.00000000E-002
44, -7.00000000E-001, 5.00000000E-002, -5.00000000E-002
45, -5.00000000E-001, 5.00000000E-002, -5.00000000E-002
46, -3.00000000E-001, 5.00000000E-002, -5.00000000E-002
47, -1.00000000E-001, 5.00000000E-002, -5.00000000E-002
48, 1.00000000E-001, 5.00000000E-002, -5.00000000E-002
49, 3.00000000E-001, 5.00000000E-002, -5.00000000E-002
50, 5.00000000E-001, 5.00000000E-002, -5.00000000E-002
51, 7.00000000E-001, 5.00000000E-002, -5.00000000E-002
52, 9.00000000E-001, 5.00000000E-002, -5.00000000E-002
53, 1.00000000E+000, -5.00000000E-002, 0.00000000E+000
54, 1.00000000E+000, -3.46944695E-017, 5.00000000E-002
55, 1.00000000E+000, 2.50000000E-002, 5.00000000E-002
56, 1.00000000E+000, -2.50000000E-002, 5.00000000E-002
57, 1.00000000E+000, 5.00000000E-002, 0.00000000E+000
58, 8.00000000E-001, -5.00000000E-002, 5.00000000E-002
59, 6.00000000E-001, -5.00000000E-002, 5.00000000E-002
60, 4.00000000E-001, -5.00000000E-002, 5.00000000E-002
61, 2.00000000E-001, -5.00000000E-002, 5.00000000E-002
62, 0.00000000E+000, -5.00000000E-002, 5.00000000E-002
63, -2.00000000E-001, -5.00000000E-002, 5.00000000E-002
64, -4.00000000E-001, -5.00000000E-002, 5.00000000E-002
65, -6.00000000E-001, -5.00000000E-002, 5.00000000E-002
66, -8.00000000E-001, -5.00000000E-002, 5.00000000E-002
67, 9.00000000E-001, -5.00000000E-002, 5.00000000E-002
68, 7.00000000E-001, -5.00000000E-002, 5.00000000E-002
69, 5.00000000E-001, -5.00000000E-002, 5.00000000E-002
70, 3.00000000E-001, -5.00000000E-002, 5.00000000E-002
71, 1.00000000E-001, -5.00000000E-002, 5.00000000E-002
72, -1.00000000E-001, -5.00000000E-002, 5.00000000E-002
73, -3.00000000E-001, -5.00000000E-002, 5.00000000E-002
74, -5.00000000E-001, -5.00000000E-002, 5.00000000E-002
75, -7.00000000E-001, -5.00000000E-002, 5.00000000E-002
76, -9.00000000E-001, -5.00000000E-002, 5.00000000E-002
77, -1.00000000E+000, -3.46944695E-017, 5.00000000E-002
78, -1.00000000E+000, 2.50000000E-002, 5.00000000E-002
79, -1.00000000E+000, -2.50000000E-002, 5.00000000E-002
80, 8.00000000E-001, 5.00000000E-002, 5.00000000E-002
81, 6.00000000E-001, 5.00000000E-002, 5.00000000E-002
82, 4.00000000E-001, 5.00000000E-002, 5.00000000E-002
83, 2.00000000E-001, 5.00000000E-002, 5.00000000E-002
84, 0.00000000E+000, 5.00000000E-002, 5.00000000E-002
85, -2.00000000E-001, 5.00000000E-002, 5.00000000E-002
86, -4.00000000E-001, 5.00000000E-002, 5.00000000E-002
87, -6.00000000E-001, 5.00000000E-002, 5.00000000E-002
88, -8.00000000E-001, 5.00000000E-002, 5.00000000E-002
89, 9.00000000E-001, 5.00000000E-002, 5.00000000E-002
90, 7.00000000E-001, 5.00000000E-002, 5.00000000E-002
91, 5.00000000E-001, 5.00000000E-002, 5.00000000E-002
92, 3.00000000E-001, 5.00000000E-002, 5.00000000E-002
93, 1.00000000E-001, 5.00000000E-002, 5.00000000E-002
94, -1.00000000E-001, 5.00000000E-002, 5.00000000E-002
95, -3.00000000E-001, 5.00000000E-002, 5.00000000E-002
96, -5.00000000E-001, 5.00000000E-002, 5.00000000E-002
97, -7.00000000E-001, 5.00000000E-002, 5.00000000E-002
98, -9.00000000E-001, 5.00000000E-002, 5.00000000E-002
99, -1.00000000E+000, -5.00000000E-002, 0.00000000E+000
100, -1.00000000E+000, 5.00000000E-002, 0.00000000E+000
101, -8.00000000E-001, -3.46944695E-017, -5.00000000E-002
102, -6.00000000E-001, -4.16333634E-017, -5.00000000E-002
103, -4.00000000E-001, -3.46944695E-017, -5.00000000E-002
104, -2.00000000E-001, -2.77555756E-017, -5.00000000E-002
105, 0.00000000E+000, -3.46944695E-017, -5.00000000E-002
106, 2.00000000E-001, -3.46944695E-017, -5.00000000E-002
107, 4.00000000E-001, -4.16333634E-017, -5.00000000E-002
108, 6.00000000E-001, -2.77555756E-017, -5.00000000E-002
109, 8.00000000E-001, -3.46944695E-017, -5.00000000E-002
110, -8.00000000E-001, 2.50000000E-002, -5.00000000E-002
111, -9.00000000E-001, -3.46944695E-017, -5.00000000E-002
112, -6.00000000E-001, 2.50000000E-002, -5.00000000E-002
113, -7.00000000E-001, -3.81639165E-017, -5.00000000E-002
114, -4.00000000E-001, 2.50000000E-002, -5.00000000E-002
115, -5.00000000E-001, -3.81639165E-017, -5.00000000E-002
116, -2.00000000E-001, 2.50000000E-002, -5.00000000E-002
117, -3.00000000E-001, -3.12250226E-017, -5.00000000E-002
118, 0.00000000E+000, 2.50000000E-002, -5.00000000E-002
119, -1.00000000E-001, -3.12250226E-017, -5.00000000E-002
120, 2.00000000E-001, 2.50000000E-002, -5.00000000E-002
121, 1.00000000E-001, -3.46944695E-017, -5.00000000E-002
122, 4.00000000E-001, 2.50000000E-002, -5.00000000E-002
123, 3.00000000E-001, -3.81639165E-017, -5.00000000E-002
124, 6.00000000E-001, 2.50000000E-002, -5.00000000E-002
125, 5.00000000E-001, -3.46944695E-017, -5.00000000E-002
126, 8.00000000E-001, 2.50000000E-002, -5.00000000E-002
127, 7.00000000E-001, -3.12250226E-017, -5.00000000E-002
128, 9.00000000E-001, -3.46944695E-017, -5.00000000E-002
129, -8.00000000E-001, -2.50000000E-002, -5.00000000E-002
130, -6.00000000E-001, -2.50000000E-002, -5.00000000E-002
131, -4.00000000E-001, -2.50000000E-002, -5.00000000E-002
132, -2.00000000E-001, -2.50000000E-002, -5.00000000E-002
133, 0.00000000E+000, -2.50000000E-002, -5.00000000E-002
134, 2.00000000E-001, -2.50000000E-002, -5.00000000E-002
135, 4.00000000E-001, -2.50000000E-002, -5.00000000E-002
136, 6.00000000E-001, -2.50000000E-002, -5.00000000E-002
137, 8.00000000E-001, -2.50000000E-002, -5.00000000E-002
138, 1.00000000E+000, -3.46944695E-017, 1.38777878E-017
139, 8.00000000E-001, -3.46944695E-017, 5.00000000E-002
140, 6.00000000E-001, -4.16333634E-017, 5.00000000E-002
141, 4.00000000E-001, -3.46944695E-017, 5.00000000E-002
142, 2.00000000E-001, -2.77555756E-017, 5.00000000E-002
143, 0.00000000E+000, -3.46944695E-017, 5.00000000E-002
144, -2.00000000E-001, -3.46944695E-017, 5.00000000E-002
145, -4.00000000E-001, -4.16333634E-017, 5.00000000E-002
146, -6.00000000E-001, -2.77555756E-017, 5.00000000E-002
147, -8.00000000E-001, -3.46944695E-017, 5.00000000E-002
148, 8.00000000E-001, 2.50000000E-002, 5.00000000E-002
149, 9.00000000E-001, -3.46944695E-017, 5.00000000E-002
150, 6.00000000E-001, 2.50000000E-002, 5.00000000E-002
151, 7.00000000E-001, -3.81639165E-017, 5.00000000E-002
152, 4.00000000E-001, 2.50000000E-002, 5.00000000E-002
153, 5.00000000E-001, -3.81639165E-017, 5.00000000E-002
154, 2.00000000E-001, 2.50000000E-002, 5.00000000E-002
155, 3.00000000E-001, -3.12250226E-017, 5.00000000E-002
156, 0.00000000E+000, 2.50000000E-002, 5.00000000E-002
157, 1.00000000E-001, -3.12250226E-017, 5.00000000E-002
158, -2.00000000E-001, 2.50000000E-002, 5.00000000E-002
159, -1.00000000E-001, -3.46944695E-017, 5.00000000E-002
160, -4.00000000E-001, 2.50000000E-002, 5.00000000E-002
161, -3.00000000E-001, -3.81639165E-017, 5.00000000E-002
162, -6.00000000E-001, 2.50000000E-002, 5.00000000E-002
163, -5.00000000E-001, -3.46944695E-017, 5.00000000E-002
164, -8.00000000E-001, 2.50000000E-002, 5.00000000E-002
165, -7.00000000E-001, -3.12250226E-017, 5.00000000E-002
166, -9.00000000E-001, -3.46944695E-017, 5.00000000E-002
167, 8.00000000E-001, -2.50000000E-002, 5.00000000E-002
168, 6.00000000E-001, -2.50000000E-002, 5.00000000E-002
169, 4.00000000E-001, -2.50000000E-002, 5.00000000E-002
170, 2.00000000E-001, -2.50000000E-002, 5.00000000E-002
171, 0.00000000E+000, -2.50000000E-002, 5.00000000E-002
172, -2.00000000E-001, -2.50000000E-002, 5.00000000E-002
173, -4.00000000E-001, -2.50000000E-002, 5.00000000E-002
174, -6.00000000E-001, -2.50000000E-002, 5.00000000E-002
175, -8.00000000E-001, -2.50000000E-002, 5.00000000E-002
176, -1.00000000E+000, -3.46944695E-017, 1.38777878E-017
177, -8.00000000E-001, 5.00000000E-002, 0.00000000E+000
178, -6.00000000E-001, 5.00000000E-002, 0.00000000E+000
179, -4.00000000E-001, 5.00000000E-002, 0.00000000E+000
180, -2.00000000E-001, 5.00000000E-002, 0.00000000E+000
181, 0.00000000E+000, 5.00000000E-002, 0.00000000E+000
182, 2.00000000E-001, 5.00000000E-002, 0.00000000E+000
183, 4.00000000E-001, 5.00000000E-002, 0.00000000E+000
184, 6.00000000E-001, 5.00000000E-002, 0.00000000E+000
185, 8.00000000E-001, 5.00000000E-002, 0.00000000E+000
186, -8.00000000E-001, -5.00000000E-002, 0.00000000E+000
187, -6.00000000E-001, -5.00000000E-002, 0.00000000E+000
188, -4.00000000E-001, -5.00000000E-002, 0.00000000E+000
189, -2.00000000E-001, -5.00000000E-002, 0.00000000E+000
190, 0.00000000E+000, -5.00000000E-002, 0.00000000E+000
191, 2.00000000E-001, -5.00000000E-002, 0.00000000E+000
192, 4.00000000E-001, -5.00000000E-002, 0.00000000E+000
193, 6.00000000E-001, -5.00000000E-002, 0.00000000E+000
194, 8.00000000E-001, -5.00000000E-002, 0.00000000E+000
195, -8.00000000E-001, -3.46944695E-017, 1.38777878E-017
196, -6.00000000E-001, -3.46944695E-017, 1.38777878E-017
197, -4.00000000E-001, -3.81639165E-017, 1.38777878E-017
198, -2.00000000E-001, -3.12250226E-017, 1.38777878E-017
199, 0.00000000E+000, -3.46944695E-017, 1.38777878E-017
200, 2.00000000E-001, -3.12250226E-017, 1.38777878E-017
201, 4.00000000E-001, -3.81639165E-017, 1.38777878E-017
202, 6.00000000E-001, -3.46944695E-017, 1.38777878E-017
203, 8.00000000E-001, -3.46944695E-017, 1.38777878E-017
204, 1.00000000E+000, 5.00000000E-002, -5.00000000E-002
205, -1.00000000E+000, 5.00000000E-002, -5.00000000E-002
206, 1.00000000E+000, 5.00000000E-002, 5.00000000E-002
207, -1.00000000E+000, 5.00000000E-002, 5.00000000E-002
208, 8.00000000E-001, 5.00000000E-002, -5.00000000E-002
209, 6.00000000E-001, 5.00000000E-002, -5.00000000E-002
210, 4.00000000E-001, 5.00000000E-002, -5.00000000E-002
211, 2.00000000E-001, 5.00000000E-002, -5.00000000E-002
212, 0.00000000E+000, 5.00000000E-002, -5.00000000E-002
213, -2.00000000E-001, 5.00000000E-002, -5.00000000E-002
214, -4.00000000E-001, 5.00000000E-002, -5.00000000E-002
215, -6.00000000E-001, 5.00000000E-002, -5.00000000E-002
216, -8.00000000E-001, 5.00000000E-002, -5.00000000E-002
217, 9.00000000E-001, 5.00000000E-002, -5.00000000E-002
218, 7.00000000E-001, 5.00000000E-002, -5.00000000E-002
219, 5.00000000E-001, 5.00000000E-002, -5.00000000E-002
220, 3.00000000E-001, 5.00000000E-002, -5.00000000E-002
221, 1.00000000E-001, 5.00000000E-002, -5.00000000E-002
222, -1.00000000E-001, 5.00000000E-002, -5.00000000E-002
223, -3.00000000E-001, 5.00000000E-002, -5.00000000E-002
224, -5.00000000E-001, 5.00000000E-002, -5.00000000E-002
225, -7.00000000E-001, 5.00000000E-002, -5.00000000E-002
226, -9.00000000E-001, 5.00000000E-002, -5.00000000E-002
227, 1.00000000E+000, 5.00000000E-002, 0.00000000E+000
228, 8.00000000E-001, 5.00000000E-002, 5.00000000E-002
229, 6.00000000E-001, 5.00000000E-002, 5.00000000E-002
230, 4.00000000E-001, 5.00000000E-002, 5.00000000E-002
231, 2.00000000E-001, 5.00000000E-002, 5.00000000E-002
232, 0.00000000E+000, 5.00000000E-002, 5.00000000E-002
233, -2.00000000E-001, 5.00000000E-002, 5.00000000E-002
234, -4.00000000E-001, 5.00000000E-002, 5.00000000E-002
235, -6.00000000E-001, 5.00000000E-002, 5.00000000E-002
236, -8.00000000E-001, 5.00000000E-002, 5.00000000E-002
237, 9.00000000E-001, 5.00000000E-002, 5.00000000E-002
238, 7.00000000E-001, 5.00000000E-002, 5.00000000E-002
239, 5.00000000E-001, 5.00000000E-002, 5.00000000E-002
240, 3.00000000E-001, 5.00000000E-002, 5.00000000E-002
241, 1.00000000E-001, 5.00000000E-002, 5.00000000E-002
242, -1.00000000E-001, 5.00000000E-002, 5.00000000E-002
243, -3.00000000E-001, 5.00000000E-002, 5.00000000E-002
244, -5.00000000E-001, 5.00000000E-002, 5.00000000E-002
245, -7.00000000E-001, 5.00000000E-002, 5.00000000E-002
246, -9.00000000E-001, 5.00000000E-002, 5.00000000E-002
247, -1.00000000E+000, 5.00000000E-002, 0.00000000E+000
248, 8.00000000E-001, 5.00000000E-002, 0.00000000E+000
249, 6.00000000E-001, 5.00000000E-002, 0.00000000E+000
250, 4.00000000E-001, 5.00000000E-002, 0.00000000E+000
251, 2.00000000E-001, 5.00000000E-002, 0.00000000E+000
252, 0.00000000E+000, 5.00000000E-002, 0.00000000E+000
253, -2.00000000E-001, 5.00000000E-002, 0.00000000E+000
254, -4.00000000E-001, 5.00000000E-002, 0.00000000E+000
255, -6.00000000E-001, 5.00000000E-002, 0.00000000E+000
256, -8.00000000E-001, 5.00000000E-002, 0.00000000E+000
267, 1.00000000E+000, -5.00000000E-002, -5.00000000E-002
268, -1.00000000E+000, -5.00000000E-002, -5.00000000E-002
269, 1.00000000E+000, -5.00000000E-002, 5.00000000E-002
270, -1.00000000E+000, -5.00000000E-002, 5.00000000E-002
271, 8.00000000E-001, -5.00000000E-002, -5.00000000E-002
272, 6.00000000E-001, -5.00000000E-002, -5.00000000E-002
273, 4.00000000E-001, -5.00000000E-002, -5.00000000E-002
274, 2.00000000E-001, -5.00000000E-002, -5.00000000E-002
275, 0.00000000E+000, -5.00000000E-002, -5.00000000E-002
276, -2.00000000E-001, -5.00000000E-002, -5.00000000E-002
277, -4.00000000E-001, -5.00000000E-002, -5.00000000E-002
278, -6.00000000E-001, -5.00000000E-002, -5.00000000E-002
279, -8.00000000E-001, -5.00000000E-002, -5.00000000E-002
280, 9.00000000E-001, -5.00000000E-002, -5.00000000E-002
281, 7.00000000E-001, -5.00000000E-002, -5.00000000E-002
282, 5.00000000E-001, -5.00000000E-002, -5.00000000E-002
283, 3.00000000E-001, -5.00000000E-002, -5.00000000E-002
284, 1.00000000E-001, -5.00000000E-002, -5.00000000E-002
285, -1.00000000E-001, -5.00000000E-002, -5.00000000E-002
286, -3.00000000E-001, -5.00000000E-002, -5.00000000E-002
287, -5.00000000E-001, -5.00000000E-002, -5.00000000E-002
288, -7.00000000E-001, -5.00000000E-002, -5.00000000E-002
289, -9.00000000E-001, -5.00000000E-002, -5.00000000E-002
290, 1.00000000E+000, -5.00000000E-002, 0.00000000E+000
291, 8.00000000E-001, -5.00000000E-002, 5.00000000E-002
292, 6.00000000E-001, -5.00000000E-002, 5.00000000E-002
293, 4.00000000E-001, -5.00000000E-002, 5.00000000E-002
294, 2.00000000E-001, -5.00000000E-002, 5.00000000E-002
295, 0.00000000E+000, -5.00000000E-002, 5.00000000E-002
296, -2.00000000E-001, -5.00000000E-002, 5.00000000E-002
297, -4.00000000E-001, -5.00000000E-002, 5.00000000E-002
298, -6.00000000E-001, -5.00000000E-002, 5.00000000E-002
299, -8.00000000E-001, -5.00000000E-002, 5.00000000E-002
300, 9.00000000E-001, -5.00000000E-002, 5.00000000E-002
301, 7.00000000E-001, -5.00000000E-002, 5.00000000E-002
302, 5.00000000E-001, -5.00000000E-002, 5.00000000E-002
303, 3.00000000E-001, -5.00000000E-002, 5.00000000E-002
304, 1.00000000E-001, -5.00000000E-002, 5.00000000E-002
305, -1.00000000E-001, -5.00000000E-002, 5.00000000E-002
306, -3.00000000E-001, -5.00000000E-002, 5.00000000E-002
307, -5.00000000E-001, -5.00000000E-002, 5.00000000E-002
308, -7.00000000E-001, -5.00000000E-002, 5.00000000E-002
309, -9.00000000E-001, -5.00000000E-002, 5.00000000E-002
310, -1.00000000E+000, -5.00000000E-002, 0.00000000E+000
311, 8.00000000E-001, -5.00000000E-002, 0.00000000E+000
312, 6.00000000E-001, -5.00000000E-002, 0.00000000E+000
313, 4.00000000E-001, -5.00000000E-002, 0.00000000E+000
314, 2.00000000E-001, -5.00000000E-002, 0.00000000E+000
315, 0.00000000E+000, -5.00000000E-002, 0.00000000E+000
316, -2.00000000E-001, -5.00000000E-002, 0.00000000E+000
317, -4.00000000E-001, -5.00000000E-002, 0.00000000E+000
318, -6.00000000E-001, -5.00000000E-002, 0.00000000E+000
319, -8.00000000E-001, -5.00000000E-002, 0.00000000E+000
**
** Elements ++++++++++++++++++++++++++++++++++++++++++++++++
**
*Element, Type=C3D20, Elset=Solid_beam
1, 1, 9, 101, 34, 8, 77, 147, 88, 10, 111, 110, 43, 78, 166, 164,
98, 100, 176, 195, 177
2, 34, 101, 102, 35, 88, 147, 146, 87, 110, 113, 112, 44, 164, 165, 162,
97, 177, 195, 196, 178
3, 35, 102, 103, 36, 87, 146, 145, 86, 112, 115, 114, 45, 162, 163, 160,
96, 178, 196, 197, 179
4, 36, 103, 104, 37, 86, 145, 144, 85, 114, 117, 116, 46, 160, 161, 158,
95, 179, 197, 198, 180
5, 37, 104, 105, 38, 85, 144, 143, 84, 116, 119, 118, 47, 158, 159, 156,
94, 180, 198, 199, 181
6, 38, 105, 106, 39, 84, 143, 142, 83, 118, 121, 120, 48, 156, 157, 154,
93, 181, 199, 200, 182
7, 39, 106, 107, 40, 83, 142, 141, 82, 120, 123, 122, 49, 154, 155, 152,
92, 182, 200, 201, 183
8, 40, 107, 108, 41, 82, 141, 140, 81, 122, 125, 124, 50, 152, 153, 150,
91, 183, 201, 202, 184
9, 41, 108, 109, 42, 81, 140, 139, 80, 124, 127, 126, 51, 150, 151, 148,
90, 184, 202, 203, 185
10, 42, 109, 31, 4, 80, 139, 54, 6, 126, 128, 32, 52, 148, 149, 55,
89, 185, 203, 138, 57
11, 9, 2, 12, 101, 77, 7, 66, 147, 11, 21, 129, 111, 79, 76, 175,
166, 176, 99, 186, 195
12, 101, 12, 13, 102, 147, 66, 65, 146, 129, 22, 130, 113, 175, 75, 174,
165, 195, 186, 187, 196
13, 102, 13, 14, 103, 146, 65, 64, 145, 130, 23, 131, 115, 174, 74, 173,
163, 196, 187, 188, 197
14, 103, 14, 15, 104, 145, 64, 63, 144, 131, 24, 132, 117, 173, 73, 172,
161, 197, 188, 189, 198
15, 104, 15, 16, 105, 144, 63, 62, 143, 132, 25, 133, 119, 172, 72, 171,
159, 198, 189, 190, 199
16, 105, 16, 17, 106, 143, 62, 61, 142, 133, 26, 134, 121, 171, 71, 170,
157, 199, 190, 191, 200
17, 106, 17, 18, 107, 142, 61, 60, 141, 134, 27, 135, 123, 170, 70, 169,
155, 200, 191, 192, 201
18, 107, 18, 19, 108, 141, 60, 59, 140, 135, 28, 136, 125, 169, 69, 168,
153, 201, 192, 193, 202
19, 108, 19, 20, 109, 140, 59, 58, 139, 136, 29, 137, 127, 168, 68, 167,
151, 202, 193, 194, 203
20, 109, 20, 3, 31, 139, 58, 5, 54, 137, 30, 33, 128, 167, 67, 56,
149, 203, 194, 53, 138
*Element, Type=S8, Elset=Shell_bottom
41, 267, 269, 291, 271, 290, 300, 311, 280
42, 271, 291, 292, 272, 311, 301, 312, 281
43, 272, 292, 293, 273, 312, 302, 313, 282
44, 273, 293, 294, 274, 313, 303, 314, 283
45, 274, 294, 295, 275, 314, 304, 315, 284
46, 275, 295, 296, 276, 315, 305, 316, 285
47, 276, 296, 297, 277, 316, 306, 317, 286
48, 277, 297, 298, 278, 317, 307, 318, 287
49, 278, 298, 299, 279, 318, 308, 319, 288
50, 279, 299, 270, 268, 319, 309, 310, 289
*Element, Type=S8, Elset=Shell_top
21, 204, 206, 228, 208, 227, 237, 248, 217
22, 208, 228, 229, 209, 248, 238, 249, 218
23, 209, 229, 230, 210, 249, 239, 250, 219
24, 210, 230, 231, 211, 250, 240, 251, 220
25, 211, 231, 232, 212, 251, 241, 252, 221
26, 212, 232, 233, 213, 252, 242, 253, 222
27, 213, 233, 234, 214, 253, 243, 254, 223
28, 214, 234, 235, 215, 254, 244, 255, 224
29, 215, 235, 236, 216, 255, 245, 256, 225
30, 216, 236, 207, 205, 256, 246, 247, 226
**
** Node sets +++++++++++++++++++++++++++++++++++++++++++++++
**
*Nset, Nset=Internal-1_Internal_Selection-1_Surface_Traction-1
3, 4, 5, 6, 31, 32, 33, 53, 54, 55, 56, 57, 138
*Nset, Nset=Internal-1_Internal_Selection-1_Shell_top_to_Solid_beam_Master
204, 205, 206, 207, 208, 209, 210, 211, 212, 213, 214, 215, 216, 217, 218, 219, 
220, 221, 222, 223, 224, 225, 226, 227, 228, 229, 230, 231, 232, 233, 234, 235, 
236, 237, 238, 239, 240, 241, 242, 243, 244, 245, 246, 247, 248, 249, 250, 251, 
252, 253, 254, 255, 256
*Nset, Nset=Internal-1_Internal_Selection-1_Shell_top_to_Solid_beam_Slave
1, 4, 6, 8, 34, 35, 36, 37, 38, 39, 40, 41, 42, 43, 44, 45, 
46, 47, 48, 49, 50, 51, 52, 57, 80, 81, 82, 83, 84, 85, 86, 87, 
88, 89, 90, 91, 92, 93, 94, 95, 96, 97, 98, 100, 177, 178, 179, 180, 
181, 182, 183, 184, 185
*Nset, Nset=Internal-1_Internal_Selection-1_Shell_bottom_to_Solid_beam_Master
267, 268, 269, 270, 271, 272, 273, 274, 275, 276, 277, 278, 279, 280, 281, 282, 
283, 284, 285, 286, 287, 288, 289, 290, 291, 292, 293, 294, 295, 296, 297, 298, 
299, 300, 301, 302, 303, 304, 305, 306, 307, 308, 309, 310, 311, 312, 313, 314, 
315, 316, 317, 318, 319
*Nset, Nset=Internal-1_Internal_Selection-1_Shell_bottom_to_Solid_beam_Slave
2, 3, 5, 7, 12, 13, 14, 15, 16, 17, 18, 19, 20, 21, 22, 23, 
24, 25, 26, 27, 28, 29, 30, 53, 58, 59, 60, 61, 62, 63, 64, 65, 
66, 67, 68, 69, 70, 71, 72, 73, 74, 75, 76, 99, 186, 187, 188, 189, 
190, 191, 192, 193, 194
*Nset, Nset=Internal_Selection-1_Fixed-1
1, 2, 7, 8, 9, 10, 11, 77, 78, 79, 99, 100, 176
*Nset, Nset=Internal_Selection-1_Fixed-2
205, 207, 247, 268, 270, 310
*Nset, Nset=Internal-1_Internal_Selection-1_Surface_Traction-2
204, 206, 227, 267, 269, 290
**
** Element sets ++++++++++++++++++++++++++++++++++++++++++++
**
*Elset, Elset=Internal_Selection-1_Solid_Section-1
Solid_beam
*Elset, Elset=Internal-1_Internal_Selection-1_Surface_Traction-1_S5
10, 20
*Elset, Elset=Internal-1_Internal_Selection-1_Shell_top_to_Solid_beam_Master_S2
21, 22, 23, 24, 25, 26, 27, 28, 29, 30
*Elset, Elset=Internal-1_Internal_Selection-1_Shell_top_to_Solid_beam_Slave_S6
1, 2, 3, 4, 5, 6, 7, 8, 9, 10
*Elset, Elset=Internal-1_Internal_Selection-1_Shell_bottom_to_Solid_beam_Master_S1
41, 42, 43, 44, 45, 46, 47, 48, 49, 50
*Elset, Elset=Internal-1_Internal_Selection-1_Shell_bottom_to_Solid_beam_Slave_S4
11, 12, 13, 14, 15, 16, 17, 18, 19, 20
*Elset, Elset=Internal_Selection-1_Shell_Section-1
21, 22, 23, 24, 25, 26, 27, 28, 29, 30
*Elset, Elset=Internal_Selection-1_Shell_Section-2
41, 42, 43, 44, 45, 46, 47, 48, 49, 50
*Elset, Elset=Internal-1_Internal_Selection-1_Surface_Traction-2_S3
21, 41
**
** Surfaces ++++++++++++++++++++++++++++++++++++++++++++++++
**
*Surface, Name=Internal_Selection-1_Surface_Traction-1, Type=Element
Internal-1_Internal_Selection-1_Surface_Traction-1_S5, S5
*Surface, Name=Internal_Selection-1_Shell_top_to_Solid_beam_Master, Type=Element
Internal-1_Internal_Selection-1_Shell_top_to_Solid_beam_Master_S2, S2
*Surface, Name=Internal_Selection-1_Shell_top_to_Solid_beam_Slave, Type=Element
Internal-1_Internal_Selection-1_Shell_top_to_Solid_beam_Slave_S6, S6
*Surface, Name=Internal_Selection-1_Shell_bottom_to_Solid_beam_Master, Type=Element
Internal-1_Internal_Selection-1_Shell_bottom_to_Solid_beam_Master_S1, S1
*Surface, Name=Internal_Selection-1_Shell_bottom_to_Solid_beam_Slave, Type=Element
Internal-1_Internal_Selection-1_Shell_bottom_to_Solid_beam_Slave_S4, S4
*Surface, Name=Internal_Selection-1_Surface_Traction-2, Type=Element
Internal-1_Internal_Selection-1_Surface_Traction-2_S3, S3
**
** Physical constants ++++++++++++++++++++++++++++++++++++++
**
**
** Coordinate systems ++++++++++++++++++++++++++++++++++++++
**
**
** Materials +++++++++++++++++++++++++++++++++++++++++++++++
**
*Material, Name=S235
*Density
7800
*Elastic
210000000000, 0.28
*Expansion, Zero=20
1.1E-05
*Conductivity
14
*Specific heat
440
**
** Sections ++++++++++++++++++++++++++++++++++++++++++++++++
**
*Solid section, Elset=Internal_Selection-1_Solid_Section-1, Material=S235
*Shell section, Elset=Internal_Selection-1_Shell_Section-1, Material=S235, Offset=0.5
0.05
*Shell section, Elset=Internal_Selection-1_Shell_Section-2, Material=S235, Offset=-0.5
0.05
**
** Pre-tension sections ++++++++++++++++++++++++++++++++++++
**
**
** Constraints +++++++++++++++++++++++++++++++++++++++++++++
**
*Tie, Name=Shell_top_to_Solid_beam, Position tolerance=0.065, Adjust=No
Internal_Selection-1_Shell_top_to_Solid_beam_Slave, Internal_Selection-1_Shell_top_to_Solid_beam_Master
*Tie, Name=Shell_bottom_to_Solid_beam, Position tolerance=0.065, Adjust=No
Internal_Selection-1_Shell_bottom_to_Solid_beam_Slave, Internal_Selection-1_Shell_bottom_to_Solid_beam_Master
**
** Surface interactions ++++++++++++++++++++++++++++++++++++
**
**
** Contact pairs +++++++++++++++++++++++++++++++++++++++++++
**
**
** Amplitudes ++++++++++++++++++++++++++++++++++++++++++++++
**
**
** Initial conditions ++++++++++++++++++++++++++++++++++++++
**
**
** Steps +++++++++++++++++++++++++++++++++++++++++++++++++++
**
**
** Step-1 ++++++++++++++++++++++++++++++++++++++++++++++++++
**
*Step
*Static
**
** Controls ++++++++++++++++++++++++++++++++++++++++++++++++
**
**
** Output frequency ++++++++++++++++++++++++++++++++++++++++
**
**
** Boundary conditions +++++++++++++++++++++++++++++++++++++
**
*Boundary, op=New
** Name: Fixed-face
*Boundary
Internal_Selection-1_Fixed-1, 1, 6, 0
** Name: Fixed-edges
*Boundary
Internal_Selection-1_Fixed-2, 1, 6, 0
**
** Loads +++++++++++++++++++++++++++++++++++++++++++++++++++
**
*Cload, op=New
*Dload, op=New
** Name: Surface_Traction-1
*Cload
31, 2, 41.6666666666667
54, 2, 41.6666666666667
6, 2, 20.8333333333333
4, 2, 20.8333333333333
138, 2, -1.66666667E+002
55, 2, -8.33333333E+001
57, 2, -8.33333333E+001
32, 2, -8.33333333E+001
3, 2, 20.8333333333333
5, 2, 20.8333333333333
53, 2, -8.33333333E+001
56, 2, -8.33333333E+001
33, 2, -8.33333333E+001
** Name: Surface_Traction-2
*Cload
204, 2, -4.16666667E+001
206, 2, -4.16666667E+001
227, 2, -1.66666667E+002
267, 2, -4.16666667E+001
269, 2, -4.16666667E+001
290, 2, -1.66666667E+002
**
** Defined fields ++++++++++++++++++++++++++++++++++++++++++
**
**
** History outputs +++++++++++++++++++++++++++++++++++++++++
**
**
** Field outputs +++++++++++++++++++++++++++++++++++++++++++
**
*Node file
RF, U
*El file
S, E, NOE
**
** End step ++++++++++++++++++++++++++++++++++++++++++++++++
**
*End step
