**
** Heading +++++++++++++++++++++++++++++++++++++++++++++++++
**
*Heading
Hash: o04IrjIb, Date: 02/11/2026, Unit system: M_KG_S_C
**
** Nodes +++++++++++++++++++++++++++++++++++++++++++++++++++
**
*Node
1, 5.00000000E-001, 9.00000000E-002, -5.00000000E-002
2, 5.00000000E-001, 9.00000000E-002, 5.00000000E-002
3, -5.00000000E-001, 9.00000000E-002, 5.00000000E-002
4, -5.00000000E-001, 9.00000000E-002, -5.00000000E-002
5, 5.00000000E-001, -7.00000000E-002, 5.00000000E-002
6, 5.00000000E-001, -7.00000000E-002, -5.00000000E-002
7, -5.00000000E-001, -7.00000000E-002, -5.00000000E-002
8, -5.00000000E-001, -7.00000000E-002, 5.00000000E-002
9, 5.00000000E-001, 9.00000000E-002, 3.46944695E-017
10, 5.00000000E-001, 9.00000000E-002, -2.50000000E-002
11, 5.00000000E-001, 9.00000000E-002, 2.50000000E-002
12, 4.16666667E-001, 9.00000000E-002, 5.00000000E-002
13, 3.33333333E-001, 9.00000000E-002, 5.00000000E-002
14, 2.50000000E-001, 9.00000000E-002, 5.00000000E-002
15, 1.66666667E-001, 9.00000000E-002, 5.00000000E-002
16, 8.33333333E-002, 9.00000000E-002, 5.00000000E-002
17, 0.00000000E+000, 9.00000000E-002, 5.00000000E-002
18, -8.33333333E-002, 9.00000000E-002, 5.00000000E-002
19, -1.66666667E-001, 9.00000000E-002, 5.00000000E-002
20, -2.50000000E-001, 9.00000000E-002, 5.00000000E-002
21, -3.33333333E-001, 9.00000000E-002, 5.00000000E-002
22, -4.16666667E-001, 9.00000000E-002, 5.00000000E-002
23, 4.58333333E-001, 9.00000000E-002, 5.00000000E-002
24, 3.75000000E-001, 9.00000000E-002, 5.00000000E-002
25, 2.91666667E-001, 9.00000000E-002, 5.00000000E-002
26, 2.08333333E-001, 9.00000000E-002, 5.00000000E-002
27, 1.25000000E-001, 9.00000000E-002, 5.00000000E-002
28, 4.16666667E-002, 9.00000000E-002, 5.00000000E-002
29, -4.16666667E-002, 9.00000000E-002, 5.00000000E-002
30, -1.25000000E-001, 9.00000000E-002, 5.00000000E-002
31, -2.08333333E-001, 9.00000000E-002, 5.00000000E-002
32, -2.91666667E-001, 9.00000000E-002, 5.00000000E-002
33, -3.75000000E-001, 9.00000000E-002, 5.00000000E-002
34, -4.58333333E-001, 9.00000000E-002, 5.00000000E-002
35, -5.00000000E-001, 9.00000000E-002, 3.46944695E-017
36, -5.00000000E-001, 9.00000000E-002, -2.50000000E-002
37, -5.00000000E-001, 9.00000000E-002, 2.50000000E-002
38, 4.16666667E-001, 9.00000000E-002, -5.00000000E-002
39, 3.33333333E-001, 9.00000000E-002, -5.00000000E-002
40, 2.50000000E-001, 9.00000000E-002, -5.00000000E-002
41, 1.66666667E-001, 9.00000000E-002, -5.00000000E-002
42, 8.33333333E-002, 9.00000000E-002, -5.00000000E-002
43, 0.00000000E+000, 9.00000000E-002, -5.00000000E-002
44, -8.33333333E-002, 9.00000000E-002, -5.00000000E-002
45, -1.66666667E-001, 9.00000000E-002, -5.00000000E-002
46, -2.50000000E-001, 9.00000000E-002, -5.00000000E-002
47, -3.33333333E-001, 9.00000000E-002, -5.00000000E-002
48, -4.16666667E-001, 9.00000000E-002, -5.00000000E-002
49, 4.58333333E-001, 9.00000000E-002, -5.00000000E-002
50, 3.75000000E-001, 9.00000000E-002, -5.00000000E-002
51, 2.91666667E-001, 9.00000000E-002, -5.00000000E-002
52, 2.08333333E-001, 9.00000000E-002, -5.00000000E-002
53, 1.25000000E-001, 9.00000000E-002, -5.00000000E-002
54, 4.16666667E-002, 9.00000000E-002, -5.00000000E-002
55, -4.16666667E-002, 9.00000000E-002, -5.00000000E-002
56, -1.25000000E-001, 9.00000000E-002, -5.00000000E-002
57, -2.08333333E-001, 9.00000000E-002, -5.00000000E-002
58, -2.91666667E-001, 9.00000000E-002, -5.00000000E-002
59, -3.75000000E-001, 9.00000000E-002, -5.00000000E-002
60, -4.58333333E-001, 9.00000000E-002, -5.00000000E-002
61, 5.00000000E-001, 1.00000000E-002, 5.00000000E-002
62, 5.00000000E-001, -3.00000000E-002, 5.00000000E-002
63, 5.00000000E-001, 5.00000000E-002, 5.00000000E-002
64, 5.00000000E-001, -7.00000000E-002, 3.46944695E-017
65, 5.00000000E-001, -7.00000000E-002, -2.50000000E-002
66, 5.00000000E-001, -7.00000000E-002, 2.50000000E-002
67, 5.00000000E-001, 1.00000000E-002, -5.00000000E-002
68, 5.00000000E-001, 5.00000000E-002, -5.00000000E-002
69, 5.00000000E-001, -3.00000000E-002, -5.00000000E-002
70, -4.16666667E-001, -7.00000000E-002, -5.00000000E-002
71, -3.33333333E-001, -7.00000000E-002, -5.00000000E-002
72, -2.50000000E-001, -7.00000000E-002, -5.00000000E-002
73, -1.66666667E-001, -7.00000000E-002, -5.00000000E-002
74, -8.33333333E-002, -7.00000000E-002, -5.00000000E-002
75, 0.00000000E+000, -7.00000000E-002, -5.00000000E-002
76, 8.33333333E-002, -7.00000000E-002, -5.00000000E-002
77, 1.66666667E-001, -7.00000000E-002, -5.00000000E-002
78, 2.50000000E-001, -7.00000000E-002, -5.00000000E-002
79, 3.33333333E-001, -7.00000000E-002, -5.00000000E-002
80, 4.16666667E-001, -7.00000000E-002, -5.00000000E-002
81, -4.58333333E-001, -7.00000000E-002, -5.00000000E-002
82, -3.75000000E-001, -7.00000000E-002, -5.00000000E-002
83, -2.91666667E-001, -7.00000000E-002, -5.00000000E-002
84, -2.08333333E-001, -7.00000000E-002, -5.00000000E-002
85, -1.25000000E-001, -7.00000000E-002, -5.00000000E-002
86, -4.16666667E-002, -7.00000000E-002, -5.00000000E-002
87, 4.16666667E-002, -7.00000000E-002, -5.00000000E-002
88, 1.25000000E-001, -7.00000000E-002, -5.00000000E-002
89, 2.08333333E-001, -7.00000000E-002, -5.00000000E-002
90, 2.91666667E-001, -7.00000000E-002, -5.00000000E-002
91, 3.75000000E-001, -7.00000000E-002, -5.00000000E-002
92, 4.58333333E-001, -7.00000000E-002, -5.00000000E-002
93, 4.16666667E-001, -7.00000000E-002, 5.00000000E-002
94, 3.33333333E-001, -7.00000000E-002, 5.00000000E-002
95, 2.50000000E-001, -7.00000000E-002, 5.00000000E-002
96, 1.66666667E-001, -7.00000000E-002, 5.00000000E-002
97, 8.33333333E-002, -7.00000000E-002, 5.00000000E-002
98, 0.00000000E+000, -7.00000000E-002, 5.00000000E-002
99, -8.33333333E-002, -7.00000000E-002, 5.00000000E-002
100, -1.66666667E-001, -7.00000000E-002, 5.00000000E-002
101, -2.50000000E-001, -7.00000000E-002, 5.00000000E-002
102, -3.33333333E-001, -7.00000000E-002, 5.00000000E-002
103, -4.16666667E-001, -7.00000000E-002, 5.00000000E-002
104, 4.58333333E-001, -7.00000000E-002, 5.00000000E-002
105, 3.75000000E-001, -7.00000000E-002, 5.00000000E-002
106, 2.91666667E-001, -7.00000000E-002, 5.00000000E-002
107, 2.08333333E-001, -7.00000000E-002, 5.00000000E-002
108, 1.25000000E-001, -7.00000000E-002, 5.00000000E-002
109, 4.16666667E-002, -7.00000000E-002, 5.00000000E-002
110, -4.16666667E-002, -7.00000000E-002, 5.00000000E-002
111, -1.25000000E-001, -7.00000000E-002, 5.00000000E-002
112, -2.08333333E-001, -7.00000000E-002, 5.00000000E-002
113, -2.91666667E-001, -7.00000000E-002, 5.00000000E-002
114, -3.75000000E-001, -7.00000000E-002, 5.00000000E-002
115, -4.58333333E-001, -7.00000000E-002, 5.00000000E-002
116, -5.00000000E-001, -7.00000000E-002, -3.46944695E-017
117, -5.00000000E-001, -7.00000000E-002, 2.50000000E-002
118, -5.00000000E-001, -7.00000000E-002, -2.50000000E-002
119, -5.00000000E-001, 1.00000000E-002, -5.00000000E-002
120, -5.00000000E-001, 5.00000000E-002, -5.00000000E-002
121, -5.00000000E-001, -3.00000000E-002, -5.00000000E-002
122, -5.00000000E-001, 1.00000000E-002, 5.00000000E-002
123, -5.00000000E-001, 5.00000000E-002, 5.00000000E-002
124, -5.00000000E-001, -3.00000000E-002, 5.00000000E-002
125, 4.16666667E-001, 9.00000000E-002, 3.46944695E-017
126, 3.33333333E-001, 9.00000000E-002, 2.08166817E-017
127, 2.50000000E-001, 9.00000000E-002, 3.46944695E-017
128, 1.66666667E-001, 9.00000000E-002, 3.46944695E-017
129, 8.33333333E-002, 9.00000000E-002, 3.46944695E-017
130, 0.00000000E+000, 9.00000000E-002, 3.46944695E-017
131, -8.33333333E-002, 9.00000000E-002, 4.16333634E-017
132, -1.66666667E-001, 9.00000000E-002, 4.16333634E-017
133, -2.50000000E-001, 9.00000000E-002, 2.08166817E-017
134, -3.33333333E-001, 9.00000000E-002, 3.46944695E-017
135, -4.16666667E-001, 9.00000000E-002, 3.46944695E-017
136, 4.16666667E-001, 9.00000000E-002, -2.50000000E-002
137, 4.58333333E-001, 9.00000000E-002, 3.46944695E-017
138, 3.33333333E-001, 9.00000000E-002, -2.50000000E-002
139, 3.75000000E-001, 9.00000000E-002, 2.77555756E-017
140, 2.50000000E-001, 9.00000000E-002, -2.50000000E-002
141, 2.91666667E-001, 9.00000000E-002, 2.77555756E-017
142, 1.66666667E-001, 9.00000000E-002, -2.50000000E-002
143, 2.08333333E-001, 9.00000000E-002, 3.46944695E-017
144, 8.33333333E-002, 9.00000000E-002, -2.50000000E-002
145, 1.25000000E-001, 9.00000000E-002, 3.46944695E-017
146, 0.00000000E+000, 9.00000000E-002, -2.50000000E-002
147, 4.16666667E-002, 9.00000000E-002, 3.46944695E-017
148, -8.33333333E-002, 9.00000000E-002, -2.50000000E-002
149, -4.16666667E-002, 9.00000000E-002, 3.81639165E-017
150, -1.66666667E-001, 9.00000000E-002, -2.50000000E-002
151, -1.25000000E-001, 9.00000000E-002, 4.16333634E-017
152, -2.50000000E-001, 9.00000000E-002, -2.50000000E-002
153, -2.08333333E-001, 9.00000000E-002, 3.12250226E-017
154, -3.33333333E-001, 9.00000000E-002, -2.50000000E-002
155, -2.91666667E-001, 9.00000000E-002, 2.77555756E-017
156, -4.16666667E-001, 9.00000000E-002, -2.50000000E-002
157, -3.75000000E-001, 9.00000000E-002, 3.46944695E-017
158, -4.58333333E-001, 9.00000000E-002, 3.46944695E-017
159, 4.16666667E-001, 9.00000000E-002, 2.50000000E-002
160, 3.33333333E-001, 9.00000000E-002, 2.50000000E-002
161, 2.50000000E-001, 9.00000000E-002, 2.50000000E-002
162, 1.66666667E-001, 9.00000000E-002, 2.50000000E-002
163, 8.33333333E-002, 9.00000000E-002, 2.50000000E-002
164, 0.00000000E+000, 9.00000000E-002, 2.50000000E-002
165, -8.33333333E-002, 9.00000000E-002, 2.50000000E-002
166, -1.66666667E-001, 9.00000000E-002, 2.50000000E-002
167, -2.50000000E-001, 9.00000000E-002, 2.50000000E-002
168, -3.33333333E-001, 9.00000000E-002, 2.50000000E-002
169, -4.16666667E-001, 9.00000000E-002, 2.50000000E-002
170, 5.00000000E-001, 1.00000000E-002, 4.46190894E-017
171, 5.00000000E-001, 5.00000000E-002, 3.96567795E-017
172, 5.00000000E-001, 1.00000000E-002, -2.50000000E-002
173, 5.00000000E-001, -3.00000000E-002, 3.96567795E-017
174, 5.00000000E-001, 1.00000000E-002, 2.50000000E-002
175, -4.16666667E-001, -7.00000000E-002, -3.15141431E-017
176, -3.33333333E-001, -7.00000000E-002, -2.13949229E-017
177, -2.50000000E-001, -7.00000000E-002, -1.73472348E-017
178, -1.66666667E-001, -7.00000000E-002, -1.50342701E-017
179, -8.33333333E-002, -7.00000000E-002, -5.78241159E-018
180, -6.30808537E-018, -7.00000000E-002, -4.45737226E-030
181, 8.33333333E-002, -7.00000000E-002, 5.78241159E-018
182, 1.66666667E-001, -7.00000000E-002, 8.09537622E-018
183, 2.50000000E-001, -7.00000000E-002, 1.73472348E-017
184, 3.33333333E-001, -7.00000000E-002, 2.65990933E-017
185, 4.16666667E-001, -7.00000000E-002, 2.54426110E-017
186, -4.58333333E-001, -7.00000000E-002, -3.31043063E-017
187, -4.16666667E-001, -7.00000000E-002, 2.50000000E-002
188, -3.75000000E-001, -7.00000000E-002, -2.64545330E-017
189, -3.33333333E-001, -7.00000000E-002, 2.50000000E-002
190, -2.91666667E-001, -7.00000000E-002, -1.93710788E-017
191, -2.50000000E-001, -7.00000000E-002, 2.50000000E-002
192, -2.08333333E-001, -7.00000000E-002, -1.61907524E-017
193, -1.66666667E-001, -7.00000000E-002, 2.50000000E-002
194, -1.25000000E-001, -7.00000000E-002, -1.04083409E-017
195, -8.33333333E-002, -7.00000000E-002, 2.50000000E-002
196, -4.16666667E-002, -7.00000000E-002, -2.89120579E-018
197, -3.15404268E-018, -7.00000000E-002, 2.50000000E-002
198, 4.16666667E-002, -7.00000000E-002, 2.89120579E-018
199, 8.33333333E-002, -7.00000000E-002, 2.50000000E-002
200, 1.25000000E-001, -7.00000000E-002, 6.93889390E-018
201, 1.66666667E-001, -7.00000000E-002, 2.50000000E-002
202, 2.08333333E-001, -7.00000000E-002, 1.27213055E-017
203, 2.50000000E-001, -7.00000000E-002, 2.50000000E-002
204, 2.91666667E-001, -7.00000000E-002, 2.19731640E-017
205, 3.33333333E-001, -7.00000000E-002, 2.50000000E-002
206, 3.75000000E-001, -7.00000000E-002, 2.60208521E-017
207, 4.16666667E-001, -7.00000000E-002, 2.50000000E-002
208, 4.58333333E-001, -7.00000000E-002, 3.00685403E-017
209, -4.16666667E-001, -7.00000000E-002, -2.50000000E-002
210, -3.33333333E-001, -7.00000000E-002, -2.50000000E-002
211, -2.50000000E-001, -7.00000000E-002, -2.50000000E-002
212, -1.66666667E-001, -7.00000000E-002, -2.50000000E-002
213, -8.33333333E-002, -7.00000000E-002, -2.50000000E-002
214, -3.15404268E-018, -7.00000000E-002, -2.50000000E-002
215, 8.33333333E-002, -7.00000000E-002, -2.50000000E-002
216, 1.66666667E-001, -7.00000000E-002, -2.50000000E-002
217, 2.50000000E-001, -7.00000000E-002, -2.50000000E-002
218, 3.33333333E-001, -7.00000000E-002, -2.50000000E-002
219, 4.16666667E-001, -7.00000000E-002, -2.50000000E-002
220, 4.16666667E-001, 1.00000000E-002, -5.00000000E-002
221, 3.33333333E-001, 1.00000000E-002, -5.00000000E-002
222, 2.50000000E-001, 1.00000000E-002, -5.00000000E-002
223, 1.66666667E-001, 1.00000000E-002, -5.00000000E-002
224, 8.33333333E-002, 1.00000000E-002, -5.00000000E-002
225, 0.00000000E+000, 1.00000000E-002, -5.00000000E-002
226, -8.33333333E-002, 1.00000000E-002, -5.00000000E-002
227, -1.66666667E-001, 1.00000000E-002, -5.00000000E-002
228, -2.50000000E-001, 1.00000000E-002, -5.00000000E-002
229, -3.33333333E-001, 1.00000000E-002, -5.00000000E-002
230, -4.16666667E-001, 1.00000000E-002, -5.00000000E-002
231, 4.58333333E-001, 1.00000000E-002, -5.00000000E-002
232, 4.16666667E-001, 5.00000000E-002, -5.00000000E-002
233, 3.75000000E-001, 1.00000000E-002, -5.00000000E-002
234, 3.33333333E-001, 5.00000000E-002, -5.00000000E-002
235, 2.91666667E-001, 1.00000000E-002, -5.00000000E-002
236, 2.50000000E-001, 5.00000000E-002, -5.00000000E-002
237, 2.08333333E-001, 1.00000000E-002, -5.00000000E-002
238, 1.66666667E-001, 5.00000000E-002, -5.00000000E-002
239, 1.25000000E-001, 1.00000000E-002, -5.00000000E-002
240, 8.33333333E-002, 5.00000000E-002, -5.00000000E-002
241, 4.16666667E-002, 1.00000000E-002, -5.00000000E-002
242, 0.00000000E+000, 5.00000000E-002, -5.00000000E-002
243, -4.16666667E-002, 1.00000000E-002, -5.00000000E-002
244, -8.33333333E-002, 5.00000000E-002, -5.00000000E-002
245, -1.25000000E-001, 1.00000000E-002, -5.00000000E-002
246, -1.66666667E-001, 5.00000000E-002, -5.00000000E-002
247, -2.08333333E-001, 1.00000000E-002, -5.00000000E-002
248, -2.50000000E-001, 5.00000000E-002, -5.00000000E-002
249, -2.91666667E-001, 1.00000000E-002, -5.00000000E-002
250, -3.33333333E-001, 5.00000000E-002, -5.00000000E-002
251, -3.75000000E-001, 1.00000000E-002, -5.00000000E-002
252, -4.16666667E-001, 5.00000000E-002, -5.00000000E-002
253, -4.58333333E-001, 1.00000000E-002, -5.00000000E-002
254, 4.16666667E-001, -3.00000000E-002, -5.00000000E-002
255, 3.33333333E-001, -3.00000000E-002, -5.00000000E-002
256, 2.50000000E-001, -3.00000000E-002, -5.00000000E-002
257, 1.66666667E-001, -3.00000000E-002, -5.00000000E-002
258, 8.33333333E-002, -3.00000000E-002, -5.00000000E-002
259, 0.00000000E+000, -3.00000000E-002, -5.00000000E-002
260, -8.33333333E-002, -3.00000000E-002, -5.00000000E-002
261, -1.66666667E-001, -3.00000000E-002, -5.00000000E-002
262, -2.50000000E-001, -3.00000000E-002, -5.00000000E-002
263, -3.33333333E-001, -3.00000000E-002, -5.00000000E-002
264, -4.16666667E-001, -3.00000000E-002, -5.00000000E-002
265, 4.16666667E-001, 1.00000000E-002, 5.00000000E-002
266, 3.33333333E-001, 1.00000000E-002, 5.00000000E-002
267, 2.50000000E-001, 1.00000000E-002, 5.00000000E-002
268, 1.66666667E-001, 1.00000000E-002, 5.00000000E-002
269, 8.33333333E-002, 1.00000000E-002, 5.00000000E-002
270, 0.00000000E+000, 1.00000000E-002, 5.00000000E-002
271, -8.33333333E-002, 1.00000000E-002, 5.00000000E-002
272, -1.66666667E-001, 1.00000000E-002, 5.00000000E-002
273, -2.50000000E-001, 1.00000000E-002, 5.00000000E-002
274, -3.33333333E-001, 1.00000000E-002, 5.00000000E-002
275, -4.16666667E-001, 1.00000000E-002, 5.00000000E-002
276, 4.58333333E-001, 1.00000000E-002, 5.00000000E-002
277, 4.16666667E-001, -3.00000000E-002, 5.00000000E-002
278, 3.75000000E-001, 1.00000000E-002, 5.00000000E-002
279, 3.33333333E-001, -3.00000000E-002, 5.00000000E-002
280, 2.91666667E-001, 1.00000000E-002, 5.00000000E-002
281, 2.50000000E-001, -3.00000000E-002, 5.00000000E-002
282, 2.08333333E-001, 1.00000000E-002, 5.00000000E-002
283, 1.66666667E-001, -3.00000000E-002, 5.00000000E-002
284, 1.25000000E-001, 1.00000000E-002, 5.00000000E-002
285, 8.33333333E-002, -3.00000000E-002, 5.00000000E-002
286, 4.16666667E-002, 1.00000000E-002, 5.00000000E-002
287, 0.00000000E+000, -3.00000000E-002, 5.00000000E-002
288, -4.16666667E-002, 1.00000000E-002, 5.00000000E-002
289, -8.33333333E-002, -3.00000000E-002, 5.00000000E-002
290, -1.25000000E-001, 1.00000000E-002, 5.00000000E-002
291, -1.66666667E-001, -3.00000000E-002, 5.00000000E-002
292, -2.08333333E-001, 1.00000000E-002, 5.00000000E-002
293, -2.50000000E-001, -3.00000000E-002, 5.00000000E-002
294, -2.91666667E-001, 1.00000000E-002, 5.00000000E-002
295, -3.33333333E-001, -3.00000000E-002, 5.00000000E-002
296, -3.75000000E-001, 1.00000000E-002, 5.00000000E-002
297, -4.16666667E-001, -3.00000000E-002, 5.00000000E-002
298, -4.58333333E-001, 1.00000000E-002, 5.00000000E-002
299, 4.16666667E-001, 5.00000000E-002, 5.00000000E-002
300, 3.33333333E-001, 5.00000000E-002, 5.00000000E-002
301, 2.50000000E-001, 5.00000000E-002, 5.00000000E-002
302, 1.66666667E-001, 5.00000000E-002, 5.00000000E-002
303, 8.33333333E-002, 5.00000000E-002, 5.00000000E-002
304, 0.00000000E+000, 5.00000000E-002, 5.00000000E-002
305, -8.33333333E-002, 5.00000000E-002, 5.00000000E-002
306, -1.66666667E-001, 5.00000000E-002, 5.00000000E-002
307, -2.50000000E-001, 5.00000000E-002, 5.00000000E-002
308, -3.33333333E-001, 5.00000000E-002, 5.00000000E-002
309, -4.16666667E-001, 5.00000000E-002, 5.00000000E-002
310, -5.00000000E-001, 1.00000000E-002, 9.02389808E-018
311, -5.00000000E-001, 1.00000000E-002, -2.50000000E-002
312, -5.00000000E-001, 5.00000000E-002, 2.18591838E-017
313, -5.00000000E-001, -3.00000000E-002, -1.28352857E-017
314, -5.00000000E-001, 1.00000000E-002, 2.50000000E-002
315, 4.16666667E-001, 1.00000000E-002, 3.59955121E-017
316, 3.33333333E-001, 1.00000000E-002, 2.86229374E-017
317, 2.50000000E-001, 1.00000000E-002, 3.16587034E-017
318, 1.66666667E-001, 1.00000000E-002, 2.86229374E-017
319, 8.33333333E-002, 1.00000000E-002, 2.08166817E-017
320, -6.93889390E-018, 1.00000000E-002, 1.99493200E-017
321, -8.33333333E-002, 1.00000000E-002, 2.25514052E-017
322, -1.66666667E-001, 1.00000000E-002, 2.60208521E-017
323, -2.50000000E-001, 1.00000000E-002, 5.20417043E-018
324, -3.33333333E-001, 1.00000000E-002, 1.04083409E-017
325, -4.16666667E-001, 1.00000000E-002, 5.20417043E-018
326, 4.16666667E-001, 5.00000000E-002, 3.53449908E-017
327, 4.58333333E-001, 1.00000000E-002, 4.03073008E-017
328, 4.16666667E-001, 1.00000000E-002, -2.50000000E-002
329, 4.16666667E-001, -3.00000000E-002, 3.07190616E-017
330, 3.33333333E-001, 5.00000000E-002, 2.47198095E-017
331, 3.75000000E-001, 1.00000000E-002, 3.23092247E-017
332, 3.33333333E-001, 1.00000000E-002, -2.50000000E-002
333, 3.33333333E-001, -3.00000000E-002, 2.76110153E-017
334, 2.50000000E-001, 5.00000000E-002, 3.31765865E-017
335, 2.91666667E-001, 1.00000000E-002, 3.01408204E-017
336, 2.50000000E-001, 1.00000000E-002, -2.50000000E-002
337, 2.50000000E-001, -3.00000000E-002, 2.45029691E-017
338, 1.66666667E-001, 5.00000000E-002, 3.16587034E-017
339, 2.08333333E-001, 1.00000000E-002, 3.01408204E-017
340, 1.66666667E-001, 1.00000000E-002, -2.50000000E-002
341, 1.66666667E-001, -3.00000000E-002, 1.83591568E-017
342, 8.33333333E-002, 5.00000000E-002, 2.77555756E-017
343, 1.25000000E-001, 1.00000000E-002, 2.47198095E-017
344, 8.33333333E-002, 1.00000000E-002, -2.50000000E-002
345, 8.33333333E-002, -3.00000000E-002, 1.32995466E-017
346, -3.46944695E-018, 5.00000000E-002, 2.73218947E-017
347, 4.16666667E-002, 1.00000000E-002, 2.03830008E-017
348, -3.46944695E-018, 1.00000000E-002, -2.50000000E-002
349, -6.62348964E-018, -3.00000000E-002, 9.97465999E-018
350, -8.33333333E-002, 5.00000000E-002, 3.20923843E-017
351, -4.16666667E-002, 1.00000000E-002, 2.12503626E-017
352, -8.33333333E-002, 1.00000000E-002, -2.50000000E-002
353, -8.33333333E-002, -3.00000000E-002, 8.38449680E-018
354, -1.66666667E-001, 5.00000000E-002, 3.38271078E-017
355, -1.25000000E-001, 1.00000000E-002, 2.42861287E-017
356, -1.66666667E-001, 1.00000000E-002, -2.50000000E-002
357, -1.66666667E-001, -3.00000000E-002, 5.49329101E-018
358, -2.50000000E-001, 5.00000000E-002, 1.30104261E-017
359, -2.08333333E-001, 1.00000000E-002, 1.56125113E-017
360, -2.50000000E-001, 1.00000000E-002, -2.50000000E-002
361, -2.50000000E-001, -3.00000000E-002, -6.07153217E-018
362, -3.33333333E-001, 5.00000000E-002, 2.25514052E-017
363, -2.91666667E-001, 1.00000000E-002, 7.80625564E-018
364, -3.33333333E-001, 1.00000000E-002, -2.50000000E-002
365, -3.33333333E-001, -3.00000000E-002, -5.49329101E-018
366, -4.16666667E-001, 5.00000000E-002, 1.99493200E-017
367, -3.75000000E-001, 1.00000000E-002, 7.80625564E-018
368, -4.16666667E-001, 1.00000000E-002, -2.50000000E-002
369, -4.16666667E-001, -3.00000000E-002, -1.31549864E-017
370, -4.58333333E-001, 1.00000000E-002, 7.11403425E-018
371, 4.16666667E-001, 1.00000000E-002, 2.50000000E-002
372, 3.33333333E-001, 1.00000000E-002, 2.50000000E-002
373, 2.50000000E-001, 1.00000000E-002, 2.50000000E-002
374, 1.66666667E-001, 1.00000000E-002, 2.50000000E-002
375, 8.33333333E-002, 1.00000000E-002, 2.50000000E-002
376, -3.46944695E-018, 1.00000000E-002, 2.50000000E-002
377, -8.33333333E-002, 1.00000000E-002, 2.50000000E-002
378, -1.66666667E-001, 1.00000000E-002, 2.50000000E-002
379, -2.50000000E-001, 1.00000000E-002, 2.50000000E-002
380, -3.33333333E-001, 1.00000000E-002, 2.50000000E-002
381, -4.16666667E-001, 1.00000000E-002, 2.50000000E-002
**
** Elements ++++++++++++++++++++++++++++++++++++++++++++++++
**
*Element, Type=C3D20, Elset=Solid_part-3
1, 1, 9, 125, 38, 67, 170, 315, 220, 10, 137, 136, 49, 172, 327, 328,
231, 68, 171, 326, 232
2, 67, 170, 315, 220, 6, 64, 185, 80, 172, 327, 328, 231, 65, 208, 219,
92, 69, 173, 329, 254
3, 38, 125, 126, 39, 220, 315, 316, 221, 136, 139, 138, 50, 328, 331, 332,
233, 232, 326, 330, 234
4, 220, 315, 316, 221, 80, 185, 184, 79, 328, 331, 332, 233, 219, 206, 218,
91, 254, 329, 333, 255
5, 39, 126, 127, 40, 221, 316, 317, 222, 138, 141, 140, 51, 332, 335, 336,
235, 234, 330, 334, 236
6, 221, 316, 317, 222, 79, 184, 183, 78, 332, 335, 336, 235, 218, 204, 217,
90, 255, 333, 337, 256
7, 40, 127, 128, 41, 222, 317, 318, 223, 140, 143, 142, 52, 336, 339, 340,
237, 236, 334, 338, 238
8, 222, 317, 318, 223, 78, 183, 182, 77, 336, 339, 340, 237, 217, 202, 216,
89, 256, 337, 341, 257
9, 41, 128, 129, 42, 223, 318, 319, 224, 142, 145, 144, 53, 340, 343, 344,
239, 238, 338, 342, 240
10, 223, 318, 319, 224, 77, 182, 181, 76, 340, 343, 344, 239, 216, 200, 215,
88, 257, 341, 345, 258
11, 42, 129, 130, 43, 224, 319, 320, 225, 144, 147, 146, 54, 344, 347, 348,
241, 240, 342, 346, 242
12, 224, 319, 320, 225, 76, 181, 180, 75, 344, 347, 348, 241, 215, 198, 214,
87, 258, 345, 349, 259
13, 43, 130, 131, 44, 225, 320, 321, 226, 146, 149, 148, 55, 348, 351, 352,
243, 242, 346, 350, 244
14, 225, 320, 321, 226, 75, 180, 179, 74, 348, 351, 352, 243, 214, 196, 213,
86, 259, 349, 353, 260
15, 44, 131, 132, 45, 226, 321, 322, 227, 148, 151, 150, 56, 352, 355, 356,
245, 244, 350, 354, 246
16, 226, 321, 322, 227, 74, 179, 178, 73, 352, 355, 356, 245, 213, 194, 212,
85, 260, 353, 357, 261
17, 45, 132, 133, 46, 227, 322, 323, 228, 150, 153, 152, 57, 356, 359, 360,
247, 246, 354, 358, 248
18, 227, 322, 323, 228, 73, 178, 177, 72, 356, 359, 360, 247, 212, 192, 211,
84, 261, 357, 361, 262
19, 46, 133, 134, 47, 228, 323, 324, 229, 152, 155, 154, 58, 360, 363, 364,
249, 248, 358, 362, 250
20, 228, 323, 324, 229, 72, 177, 176, 71, 360, 363, 364, 249, 211, 190, 210,
83, 262, 361, 365, 263
21, 47, 134, 135, 48, 229, 324, 325, 230, 154, 157, 156, 59, 364, 367, 368,
251, 250, 362, 366, 252
22, 229, 324, 325, 230, 71, 176, 175, 70, 364, 367, 368, 251, 210, 188, 209,
82, 263, 365, 369, 264
23, 48, 135, 35, 4, 230, 325, 310, 119, 156, 158, 36, 60, 368, 370, 311,
253, 252, 366, 312, 120
24, 230, 325, 310, 119, 70, 175, 116, 7, 368, 370, 311, 253, 209, 186, 118,
81, 264, 369, 313, 121
25, 9, 2, 12, 125, 170, 61, 265, 315, 11, 23, 159, 137, 174, 276, 371,
327, 171, 63, 299, 326
26, 170, 61, 265, 315, 64, 5, 93, 185, 174, 276, 371, 327, 66, 104, 207,
208, 173, 62, 277, 329
27, 125, 12, 13, 126, 315, 265, 266, 316, 159, 24, 160, 139, 371, 278, 372,
331, 326, 299, 300, 330
28, 315, 265, 266, 316, 185, 93, 94, 184, 371, 278, 372, 331, 207, 105, 205,
206, 329, 277, 279, 333
29, 126, 13, 14, 127, 316, 266, 267, 317, 160, 25, 161, 141, 372, 280, 373,
335, 330, 300, 301, 334
30, 316, 266, 267, 317, 184, 94, 95, 183, 372, 280, 373, 335, 205, 106, 203,
204, 333, 279, 281, 337
31, 127, 14, 15, 128, 317, 267, 268, 318, 161, 26, 162, 143, 373, 282, 374,
339, 334, 301, 302, 338
32, 317, 267, 268, 318, 183, 95, 96, 182, 373, 282, 374, 339, 203, 107, 201,
202, 337, 281, 283, 341
33, 128, 15, 16, 129, 318, 268, 269, 319, 162, 27, 163, 145, 374, 284, 375,
343, 338, 302, 303, 342
34, 318, 268, 269, 319, 182, 96, 97, 181, 374, 284, 375, 343, 201, 108, 199,
200, 341, 283, 285, 345
35, 129, 16, 17, 130, 319, 269, 270, 320, 163, 28, 164, 147, 375, 286, 376,
347, 342, 303, 304, 346
36, 319, 269, 270, 320, 181, 97, 98, 180, 375, 286, 376, 347, 199, 109, 197,
198, 345, 285, 287, 349
37, 130, 17, 18, 131, 320, 270, 271, 321, 164, 29, 165, 149, 376, 288, 377,
351, 346, 304, 305, 350
38, 320, 270, 271, 321, 180, 98, 99, 179, 376, 288, 377, 351, 197, 110, 195,
196, 349, 287, 289, 353
39, 131, 18, 19, 132, 321, 271, 272, 322, 165, 30, 166, 151, 377, 290, 378,
355, 350, 305, 306, 354
40, 321, 271, 272, 322, 179, 99, 100, 178, 377, 290, 378, 355, 195, 111, 193,
194, 353, 289, 291, 357
41, 132, 19, 20, 133, 322, 272, 273, 323, 166, 31, 167, 153, 378, 292, 379,
359, 354, 306, 307, 358
42, 322, 272, 273, 323, 178, 100, 101, 177, 378, 292, 379, 359, 193, 112, 191,
192, 357, 291, 293, 361
43, 133, 20, 21, 134, 323, 273, 274, 324, 167, 32, 168, 155, 379, 294, 380,
363, 358, 307, 308, 362
44, 323, 273, 274, 324, 177, 101, 102, 176, 379, 294, 380, 363, 191, 113, 189,
190, 361, 293, 295, 365
45, 134, 21, 22, 135, 324, 274, 275, 325, 168, 33, 169, 157, 380, 296, 381,
367, 362, 308, 309, 366
46, 324, 274, 275, 325, 176, 102, 103, 175, 380, 296, 381, 367, 189, 114, 187,
188, 365, 295, 297, 369
47, 135, 22, 3, 35, 325, 275, 122, 310, 169, 34, 37, 158, 381, 298, 314,
370, 366, 309, 123, 312
48, 325, 275, 122, 310, 175, 103, 8, 116, 381, 298, 314, 370, 187, 115, 117,
186, 369, 297, 124, 313
**
** Node sets +++++++++++++++++++++++++++++++++++++++++++++++
**
*Nset, Nset=Internal_Selection-1_Fixed-1
3, 4, 7, 8, 35, 36, 37, 116, 117, 118, 119, 120, 121, 122, 123, 124, 
310, 311, 312, 313, 314
*Nset, Nset=Internal-1_Internal_Selection-1_Surface_Traction-1
1, 2, 5, 6, 9, 10, 11, 61, 62, 63, 64, 65, 66, 67, 68, 69, 
170, 171, 172, 173, 174
**
** Element sets ++++++++++++++++++++++++++++++++++++++++++++
**
*Elset, Elset=Internal_Selection-1_Solid_Section-1
Solid_part-3
*Elset, Elset=Internal-1_Internal_Selection-1_Surface_Traction-1_S3
1, 2, 25, 26
**
** Surfaces ++++++++++++++++++++++++++++++++++++++++++++++++
**
*Surface, Name=Internal_Selection-1_Surface_Traction-1, Type=Element
Internal-1_Internal_Selection-1_Surface_Traction-1_S3, S3
**
** Physical constants ++++++++++++++++++++++++++++++++++++++
**
**
** Coordinate systems ++++++++++++++++++++++++++++++++++++++
**
**
** Materials +++++++++++++++++++++++++++++++++++++++++++++++
**
*Material, Name=S235
*Density
7800
*Elastic
210000000000, 0.28
*Expansion, Zero=20
1.1E-05
*Conductivity
14
*Specific heat
440
**
** Sections ++++++++++++++++++++++++++++++++++++++++++++++++
**
*Solid section, Elset=Internal_Selection-1_Solid_Section-1, Material=S235
**
** Pre-tension sections ++++++++++++++++++++++++++++++++++++
**
**
** Constraints +++++++++++++++++++++++++++++++++++++++++++++
**
**
** Surface interactions ++++++++++++++++++++++++++++++++++++
**
**
** Contact pairs +++++++++++++++++++++++++++++++++++++++++++
**
**
** Amplitudes ++++++++++++++++++++++++++++++++++++++++++++++
**
**
** Initial conditions ++++++++++++++++++++++++++++++++++++++
**
**
** Steps +++++++++++++++++++++++++++++++++++++++++++++++++++
**
**
** Step-1 ++++++++++++++++++++++++++++++++++++++++++++++++++
**
*Step
*Static
**
** Controls ++++++++++++++++++++++++++++++++++++++++++++++++
**
**
** Output frequency ++++++++++++++++++++++++++++++++++++++++
**
**
** Boundary conditions +++++++++++++++++++++++++++++++++++++
**
*Boundary, op=New
** Name: Fixed-1
*Boundary
Internal_Selection-1_Fixed-1, 1, 6, 0
**
** Loads +++++++++++++++++++++++++++++++++++++++++++++++++++
**
*Cload, op=New
*Dload, op=New
** Name: Surface_Traction-1
*Cload
1, 2, 20.8333333333333
67, 2, 41.6666666666667
170, 2, 83.3333333333333
9, 2, 41.6666666666667
68, 2, -8.33333333E+001
172, 2, -1.66666667E+002
171, 2, -1.66666667E+002
10, 2, -8.33333333E+001
6, 2, 20.8333333333333
64, 2, 41.6666666666667
69, 2, -8.33333333E+001
65, 2, -8.33333333E+001
173, 2, -1.66666667E+002
61, 2, 41.6666666666666
2, 2, 20.8333333333333
174, 2, -1.66666667E+002
63, 2, -8.33333333E+001
11, 2, -8.33333333E+001
5, 2, 20.8333333333333
66, 2, -8.33333333E+001
62, 2, -8.33333333E+001
**
** Defined fields ++++++++++++++++++++++++++++++++++++++++++
**
**
** History outputs +++++++++++++++++++++++++++++++++++++++++
**
**
** Field outputs +++++++++++++++++++++++++++++++++++++++++++
**
*Node file
RF, U
*El file
S, E, NOE
**
** End step ++++++++++++++++++++++++++++++++++++++++++++++++
**
*End step
