**
** Heading +++++++++++++++++++++++++++++++++++++++++++++++++
**
*Heading
Hash: ikRkHUQf, Date: 02/12/2026, Unit system: M_KG_S_C
**
** Nodes +++++++++++++++++++++++++++++++++++++++++++++++++++
**
*Node
1, -5.00000000E-001, -6.00000000E-002, -5.00000000E-002
2, -5.00000000E-001, -6.00000000E-002, 5.00000000E-002
3, 5.00000000E-001, -6.00000000E-002, 5.00000000E-002
4, 5.00000000E-001, -6.00000000E-002, -5.00000000E-002
5, 5.00000000E-001, 6.00000000E-002, 5.00000000E-002
6, 5.00000000E-001, 6.00000000E-002, -5.00000000E-002
7, -5.00000000E-001, 6.00000000E-002, 5.00000000E-002
8, -5.00000000E-001, 6.00000000E-002, -5.00000000E-002
9, -5.00000000E-001, -6.00000000E-002, 3.46944695E-017
10, -5.00000000E-001, -6.00000000E-002, -2.50000000E-002
11, -5.00000000E-001, -6.00000000E-002, 2.50000000E-002
12, -4.16666667E-001, -6.00000000E-002, 5.00000000E-002
13, -3.33333333E-001, -6.00000000E-002, 5.00000000E-002
14, -2.50000000E-001, -6.00000000E-002, 5.00000000E-002
15, -1.66666667E-001, -6.00000000E-002, 5.00000000E-002
16, -8.33333333E-002, -6.00000000E-002, 5.00000000E-002
17, 0.00000000E+000, -6.00000000E-002, 5.00000000E-002
18, 8.33333333E-002, -6.00000000E-002, 5.00000000E-002
19, 1.66666667E-001, -6.00000000E-002, 5.00000000E-002
20, 2.50000000E-001, -6.00000000E-002, 5.00000000E-002
21, 3.33333333E-001, -6.00000000E-002, 5.00000000E-002
22, 4.16666667E-001, -6.00000000E-002, 5.00000000E-002
23, -4.58333333E-001, -6.00000000E-002, 5.00000000E-002
24, -3.75000000E-001, -6.00000000E-002, 5.00000000E-002
25, -2.91666667E-001, -6.00000000E-002, 5.00000000E-002
26, -2.08333333E-001, -6.00000000E-002, 5.00000000E-002
27, -1.25000000E-001, -6.00000000E-002, 5.00000000E-002
28, -4.16666667E-002, -6.00000000E-002, 5.00000000E-002
29, 4.16666667E-002, -6.00000000E-002, 5.00000000E-002
30, 1.25000000E-001, -6.00000000E-002, 5.00000000E-002
31, 2.08333333E-001, -6.00000000E-002, 5.00000000E-002
32, 2.91666667E-001, -6.00000000E-002, 5.00000000E-002
33, 3.75000000E-001, -6.00000000E-002, 5.00000000E-002
34, 4.58333333E-001, -6.00000000E-002, 5.00000000E-002
35, 5.00000000E-001, -6.00000000E-002, 3.46944695E-017
36, 5.00000000E-001, -6.00000000E-002, -2.50000000E-002
37, 5.00000000E-001, -6.00000000E-002, 2.50000000E-002
38, -4.16666667E-001, -6.00000000E-002, -5.00000000E-002
39, -3.33333333E-001, -6.00000000E-002, -5.00000000E-002
40, -2.50000000E-001, -6.00000000E-002, -5.00000000E-002
41, -1.66666667E-001, -6.00000000E-002, -5.00000000E-002
42, -8.33333333E-002, -6.00000000E-002, -5.00000000E-002
43, 0.00000000E+000, -6.00000000E-002, -5.00000000E-002
44, 8.33333333E-002, -6.00000000E-002, -5.00000000E-002
45, 1.66666667E-001, -6.00000000E-002, -5.00000000E-002
46, 2.50000000E-001, -6.00000000E-002, -5.00000000E-002
47, 3.33333333E-001, -6.00000000E-002, -5.00000000E-002
48, 4.16666667E-001, -6.00000000E-002, -5.00000000E-002
49, -4.58333333E-001, -6.00000000E-002, -5.00000000E-002
50, -3.75000000E-001, -6.00000000E-002, -5.00000000E-002
51, -2.91666667E-001, -6.00000000E-002, -5.00000000E-002
52, -2.08333333E-001, -6.00000000E-002, -5.00000000E-002
53, -1.25000000E-001, -6.00000000E-002, -5.00000000E-002
54, -4.16666667E-002, -6.00000000E-002, -5.00000000E-002
55, 4.16666667E-002, -6.00000000E-002, -5.00000000E-002
56, 1.25000000E-001, -6.00000000E-002, -5.00000000E-002
57, 2.08333333E-001, -6.00000000E-002, -5.00000000E-002
58, 2.91666667E-001, -6.00000000E-002, -5.00000000E-002
59, 3.75000000E-001, -6.00000000E-002, -5.00000000E-002
60, 4.58333333E-001, -6.00000000E-002, -5.00000000E-002
61, 5.00000000E-001, 2.01227923E-016, 5.00000000E-002
62, 5.00000000E-001, -3.00000000E-002, 5.00000000E-002
63, 5.00000000E-001, 3.00000000E-002, 5.00000000E-002
64, 5.00000000E-001, 6.00000000E-002, 3.46944695E-017
65, 5.00000000E-001, 6.00000000E-002, -2.50000000E-002
66, 5.00000000E-001, 6.00000000E-002, 2.50000000E-002
67, 5.00000000E-001, 2.01227923E-016, -5.00000000E-002
68, 5.00000000E-001, -3.00000000E-002, -5.00000000E-002
69, 5.00000000E-001, 3.00000000E-002, -5.00000000E-002
70, 4.16666667E-001, 6.00000000E-002, 5.00000000E-002
71, 3.33333333E-001, 6.00000000E-002, 5.00000000E-002
72, 2.50000000E-001, 6.00000000E-002, 5.00000000E-002
73, 1.66666667E-001, 6.00000000E-002, 5.00000000E-002
74, 8.33333333E-002, 6.00000000E-002, 5.00000000E-002
75, 0.00000000E+000, 6.00000000E-002, 5.00000000E-002
76, -8.33333333E-002, 6.00000000E-002, 5.00000000E-002
77, -1.66666667E-001, 6.00000000E-002, 5.00000000E-002
78, -2.50000000E-001, 6.00000000E-002, 5.00000000E-002
79, -3.33333333E-001, 6.00000000E-002, 5.00000000E-002
80, -4.16666667E-001, 6.00000000E-002, 5.00000000E-002
81, 4.58333333E-001, 6.00000000E-002, 5.00000000E-002
82, 3.75000000E-001, 6.00000000E-002, 5.00000000E-002
83, 2.91666667E-001, 6.00000000E-002, 5.00000000E-002
84, 2.08333333E-001, 6.00000000E-002, 5.00000000E-002
85, 1.25000000E-001, 6.00000000E-002, 5.00000000E-002
86, 4.16666667E-002, 6.00000000E-002, 5.00000000E-002
87, -4.16666667E-002, 6.00000000E-002, 5.00000000E-002
88, -1.25000000E-001, 6.00000000E-002, 5.00000000E-002
89, -2.08333333E-001, 6.00000000E-002, 5.00000000E-002
90, -2.91666667E-001, 6.00000000E-002, 5.00000000E-002
91, -3.75000000E-001, 6.00000000E-002, 5.00000000E-002
92, -4.58333333E-001, 6.00000000E-002, 5.00000000E-002
93, -5.00000000E-001, 6.00000000E-002, 3.46944695E-017
94, -5.00000000E-001, 6.00000000E-002, -2.50000000E-002
95, -5.00000000E-001, 6.00000000E-002, 2.50000000E-002
96, 4.16666667E-001, 6.00000000E-002, -5.00000000E-002
97, 3.33333333E-001, 6.00000000E-002, -5.00000000E-002
98, 2.50000000E-001, 6.00000000E-002, -5.00000000E-002
99, 1.66666667E-001, 6.00000000E-002, -5.00000000E-002
100, 8.33333333E-002, 6.00000000E-002, -5.00000000E-002
101, 0.00000000E+000, 6.00000000E-002, -5.00000000E-002
102, -8.33333333E-002, 6.00000000E-002, -5.00000000E-002
103, -1.66666667E-001, 6.00000000E-002, -5.00000000E-002
104, -2.50000000E-001, 6.00000000E-002, -5.00000000E-002
105, -3.33333333E-001, 6.00000000E-002, -5.00000000E-002
106, -4.16666667E-001, 6.00000000E-002, -5.00000000E-002
107, 4.58333333E-001, 6.00000000E-002, -5.00000000E-002
108, 3.75000000E-001, 6.00000000E-002, -5.00000000E-002
109, 2.91666667E-001, 6.00000000E-002, -5.00000000E-002
110, 2.08333333E-001, 6.00000000E-002, -5.00000000E-002
111, 1.25000000E-001, 6.00000000E-002, -5.00000000E-002
112, 4.16666667E-002, 6.00000000E-002, -5.00000000E-002
113, -4.16666667E-002, 6.00000000E-002, -5.00000000E-002
114, -1.25000000E-001, 6.00000000E-002, -5.00000000E-002
115, -2.08333333E-001, 6.00000000E-002, -5.00000000E-002
116, -2.91666667E-001, 6.00000000E-002, -5.00000000E-002
117, -3.75000000E-001, 6.00000000E-002, -5.00000000E-002
118, -4.58333333E-001, 6.00000000E-002, -5.00000000E-002
119, -5.00000000E-001, -2.01227923E-016, 5.00000000E-002
120, -5.00000000E-001, 3.00000000E-002, 5.00000000E-002
121, -5.00000000E-001, -3.00000000E-002, 5.00000000E-002
122, -5.00000000E-001, -2.01227923E-016, -5.00000000E-002
123, -5.00000000E-001, 3.00000000E-002, -5.00000000E-002
124, -5.00000000E-001, -3.00000000E-002, -5.00000000E-002
125, -4.16666667E-001, -6.00000000E-002, 3.46944695E-017
126, -3.33333333E-001, -6.00000000E-002, 2.08166817E-017
127, -2.50000000E-001, -6.00000000E-002, 3.46944695E-017
128, -1.66666667E-001, -6.00000000E-002, 3.46944695E-017
129, -8.33333333E-002, -6.00000000E-002, 3.46944695E-017
130, 0.00000000E+000, -6.00000000E-002, 3.46944695E-017
131, 8.33333333E-002, -6.00000000E-002, 4.16333634E-017
132, 1.66666667E-001, -6.00000000E-002, 4.16333634E-017
133, 2.50000000E-001, -6.00000000E-002, 2.08166817E-017
134, 3.33333333E-001, -6.00000000E-002, 3.46944695E-017
135, 4.16666667E-001, -6.00000000E-002, 3.46944695E-017
136, -4.16666667E-001, -6.00000000E-002, -2.50000000E-002
137, -4.58333333E-001, -6.00000000E-002, 3.46944695E-017
138, -3.33333333E-001, -6.00000000E-002, -2.50000000E-002
139, -3.75000000E-001, -6.00000000E-002, 2.77555756E-017
140, -2.50000000E-001, -6.00000000E-002, -2.50000000E-002
141, -2.91666667E-001, -6.00000000E-002, 2.77555756E-017
142, -1.66666667E-001, -6.00000000E-002, -2.50000000E-002
143, -2.08333333E-001, -6.00000000E-002, 3.46944695E-017
144, -8.33333333E-002, -6.00000000E-002, -2.50000000E-002
145, -1.25000000E-001, -6.00000000E-002, 3.46944695E-017
146, 0.00000000E+000, -6.00000000E-002, -2.50000000E-002
147, -4.16666667E-002, -6.00000000E-002, 3.46944695E-017
148, 8.33333333E-002, -6.00000000E-002, -2.50000000E-002
149, 4.16666667E-002, -6.00000000E-002, 3.81639165E-017
150, 1.66666667E-001, -6.00000000E-002, -2.50000000E-002
151, 1.25000000E-001, -6.00000000E-002, 4.16333634E-017
152, 2.50000000E-001, -6.00000000E-002, -2.50000000E-002
153, 2.08333333E-001, -6.00000000E-002, 3.12250226E-017
154, 3.33333333E-001, -6.00000000E-002, -2.50000000E-002
155, 2.91666667E-001, -6.00000000E-002, 2.77555756E-017
156, 4.16666667E-001, -6.00000000E-002, -2.50000000E-002
157, 3.75000000E-001, -6.00000000E-002, 3.46944695E-017
158, 4.58333333E-001, -6.00000000E-002, 3.46944695E-017
159, -4.16666667E-001, -6.00000000E-002, 2.50000000E-002
160, -3.33333333E-001, -6.00000000E-002, 2.50000000E-002
161, -2.50000000E-001, -6.00000000E-002, 2.50000000E-002
162, -1.66666667E-001, -6.00000000E-002, 2.50000000E-002
163, -8.33333333E-002, -6.00000000E-002, 2.50000000E-002
164, 0.00000000E+000, -6.00000000E-002, 2.50000000E-002
165, 8.33333333E-002, -6.00000000E-002, 2.50000000E-002
166, 1.66666667E-001, -6.00000000E-002, 2.50000000E-002
167, 2.50000000E-001, -6.00000000E-002, 2.50000000E-002
168, 3.33333333E-001, -6.00000000E-002, 2.50000000E-002
169, 4.16666667E-001, -6.00000000E-002, 2.50000000E-002
170, 5.00000000E-001, 2.01227923E-016, 3.46944695E-017
171, 5.00000000E-001, 2.01227923E-016, -2.50000000E-002
172, 5.00000000E-001, -3.00000000E-002, 3.46944695E-017
173, 5.00000000E-001, 3.00000000E-002, 3.46944695E-017
174, 5.00000000E-001, 2.01227923E-016, 2.50000000E-002
175, 4.16666667E-001, 6.00000000E-002, 3.46944695E-017
176, 3.33333333E-001, 6.00000000E-002, 2.08166817E-017
177, 2.50000000E-001, 6.00000000E-002, 3.46944695E-017
178, 1.66666667E-001, 6.00000000E-002, 3.46944695E-017
179, 8.33333333E-002, 6.00000000E-002, 3.46944695E-017
180, 0.00000000E+000, 6.00000000E-002, 3.46944695E-017
181, -8.33333333E-002, 6.00000000E-002, 4.16333634E-017
182, -1.66666667E-001, 6.00000000E-002, 4.16333634E-017
183, -2.50000000E-001, 6.00000000E-002, 2.08166817E-017
184, -3.33333333E-001, 6.00000000E-002, 3.46944695E-017
185, -4.16666667E-001, 6.00000000E-002, 3.46944695E-017
186, 4.16666667E-001, 6.00000000E-002, -2.50000000E-002
187, 4.58333333E-001, 6.00000000E-002, 3.46944695E-017
188, 3.33333333E-001, 6.00000000E-002, -2.50000000E-002
189, 3.75000000E-001, 6.00000000E-002, 2.77555756E-017
190, 2.50000000E-001, 6.00000000E-002, -2.50000000E-002
191, 2.91666667E-001, 6.00000000E-002, 2.77555756E-017
192, 1.66666667E-001, 6.00000000E-002, -2.50000000E-002
193, 2.08333333E-001, 6.00000000E-002, 3.46944695E-017
194, 8.33333333E-002, 6.00000000E-002, -2.50000000E-002
195, 1.25000000E-001, 6.00000000E-002, 3.46944695E-017
196, 0.00000000E+000, 6.00000000E-002, -2.50000000E-002
197, 4.16666667E-002, 6.00000000E-002, 3.46944695E-017
198, -8.33333333E-002, 6.00000000E-002, -2.50000000E-002
199, -4.16666667E-002, 6.00000000E-002, 3.81639165E-017
200, -1.66666667E-001, 6.00000000E-002, -2.50000000E-002
201, -1.25000000E-001, 6.00000000E-002, 4.16333634E-017
202, -2.50000000E-001, 6.00000000E-002, -2.50000000E-002
203, -2.08333333E-001, 6.00000000E-002, 3.12250226E-017
204, -3.33333333E-001, 6.00000000E-002, -2.50000000E-002
205, -2.91666667E-001, 6.00000000E-002, 2.77555756E-017
206, -4.16666667E-001, 6.00000000E-002, -2.50000000E-002
207, -3.75000000E-001, 6.00000000E-002, 3.46944695E-017
208, -4.58333333E-001, 6.00000000E-002, 3.46944695E-017
209, 4.16666667E-001, 6.00000000E-002, 2.50000000E-002
210, 3.33333333E-001, 6.00000000E-002, 2.50000000E-002
211, 2.50000000E-001, 6.00000000E-002, 2.50000000E-002
212, 1.66666667E-001, 6.00000000E-002, 2.50000000E-002
213, 8.33333333E-002, 6.00000000E-002, 2.50000000E-002
214, 0.00000000E+000, 6.00000000E-002, 2.50000000E-002
215, -8.33333333E-002, 6.00000000E-002, 2.50000000E-002
216, -1.66666667E-001, 6.00000000E-002, 2.50000000E-002
217, -2.50000000E-001, 6.00000000E-002, 2.50000000E-002
218, -3.33333333E-001, 6.00000000E-002, 2.50000000E-002
219, -4.16666667E-001, 6.00000000E-002, 2.50000000E-002
220, -5.00000000E-001, -2.01227923E-016, 3.46944695E-017
221, -5.00000000E-001, -2.01227923E-016, -2.50000000E-002
222, -5.00000000E-001, 3.00000000E-002, 3.46944695E-017
223, -5.00000000E-001, -3.00000000E-002, 3.46944695E-017
224, -5.00000000E-001, -2.01227923E-016, 2.50000000E-002
225, -4.16666667E-001, -1.69631174E-016, -5.00000000E-002
226, -3.33333333E-001, -1.38406152E-016, -5.00000000E-002
227, -2.50000000E-001, -1.03711682E-016, -5.00000000E-002
228, -1.66666667E-001, -6.90172126E-017, -5.00000000E-002
229, -8.33333333E-002, -4.12616370E-017, -5.00000000E-002
230, 0.00000000E+000, -3.09772049E-018, -5.00000000E-002
231, 8.33333333E-002, 2.98620256E-017, -5.00000000E-002
232, 1.66666667E-001, 6.45564951E-017, -5.00000000E-002
233, 2.50000000E-001, 9.75162411E-017, -5.00000000E-002
234, 3.33333333E-001, 1.31343349E-016, -5.00000000E-002
235, 4.16666667E-001, 1.64736776E-016, -5.00000000E-002
236, -4.58333333E-001, -1.85429549E-016, -5.00000000E-002
237, -4.16666667E-001, -3.00000000E-002, -5.00000000E-002
238, -4.16666667E-001, 3.00000000E-002, -5.00000000E-002
239, -3.75000000E-001, -1.54018663E-016, -5.00000000E-002
240, -3.33333333E-001, -3.00000000E-002, -5.00000000E-002
241, -3.33333333E-001, 3.00000000E-002, -5.00000000E-002
242, -2.91666667E-001, -1.21058917E-016, -5.00000000E-002
243, -2.50000000E-001, -3.00000000E-002, -5.00000000E-002
244, -2.50000000E-001, 3.00000000E-002, -5.00000000E-002
245, -2.08333333E-001, -8.63644473E-017, -5.00000000E-002
246, -1.66666667E-001, -3.00000000E-002, -5.00000000E-002
247, -1.66666667E-001, 3.00000000E-002, -5.00000000E-002
248, -1.25000000E-001, -5.51394248E-017, -5.00000000E-002
249, -8.33333333E-002, -3.00000000E-002, -5.00000000E-002
250, -8.33333333E-002, 3.00000000E-002, -5.00000000E-002
251, -4.16666667E-002, -2.21796787E-017, -5.00000000E-002
252, 0.00000000E+000, -3.00000000E-002, -5.00000000E-002
253, 0.00000000E+000, 3.00000000E-002, -5.00000000E-002
254, 4.16666667E-002, 1.33821525E-017, -5.00000000E-002
255, 8.33333333E-002, -3.00000000E-002, -5.00000000E-002
256, 8.33333333E-002, 3.00000000E-002, -5.00000000E-002
257, 1.25000000E-001, 4.72092603E-017, -5.00000000E-002
258, 1.66666667E-001, -3.00000000E-002, -5.00000000E-002
259, 1.66666667E-001, 3.00000000E-002, -5.00000000E-002
260, 2.08333333E-001, 8.10363681E-017, -5.00000000E-002
261, 2.50000000E-001, -3.00000000E-002, -5.00000000E-002
262, 2.50000000E-001, 3.00000000E-002, -5.00000000E-002
263, 2.91666667E-001, 1.14429795E-016, -5.00000000E-002
264, 3.33333333E-001, -3.00000000E-002, -5.00000000E-002
265, 3.33333333E-001, 3.00000000E-002, -5.00000000E-002
266, 3.75000000E-001, 1.48040062E-016, -5.00000000E-002
267, 4.16666667E-001, -3.00000000E-002, -5.00000000E-002
268, 4.16666667E-001, 3.00000000E-002, -5.00000000E-002
269, 4.58333333E-001, 1.82982350E-016, -5.00000000E-002
270, -4.16666667E-001, -1.69631174E-016, 5.00000000E-002
271, -3.33333333E-001, -1.38406152E-016, 5.00000000E-002
272, -2.50000000E-001, -1.03711682E-016, 5.00000000E-002
273, -1.66666667E-001, -6.90172126E-017, 5.00000000E-002
274, -8.33333333E-002, -4.12616370E-017, 5.00000000E-002
275, 0.00000000E+000, -3.09772049E-018, 5.00000000E-002
276, 8.33333333E-002, 2.98620256E-017, 5.00000000E-002
277, 1.66666667E-001, 6.45564951E-017, 5.00000000E-002
278, 2.50000000E-001, 9.75162411E-017, 5.00000000E-002
279, 3.33333333E-001, 1.31343349E-016, 5.00000000E-002
280, 4.16666667E-001, 1.64736776E-016, 5.00000000E-002
281, -4.16666667E-001, -3.00000000E-002, 5.00000000E-002
282, -4.58333333E-001, -1.85429549E-016, 5.00000000E-002
283, -4.16666667E-001, 3.00000000E-002, 5.00000000E-002
284, -3.33333333E-001, -3.00000000E-002, 5.00000000E-002
285, -3.75000000E-001, -1.54018663E-016, 5.00000000E-002
286, -3.33333333E-001, 3.00000000E-002, 5.00000000E-002
287, -2.50000000E-001, -3.00000000E-002, 5.00000000E-002
288, -2.91666667E-001, -1.21058917E-016, 5.00000000E-002
289, -2.50000000E-001, 3.00000000E-002, 5.00000000E-002
290, -1.66666667E-001, -3.00000000E-002, 5.00000000E-002
291, -2.08333333E-001, -8.63644473E-017, 5.00000000E-002
292, -1.66666667E-001, 3.00000000E-002, 5.00000000E-002
293, -8.33333333E-002, -3.00000000E-002, 5.00000000E-002
294, -1.25000000E-001, -5.51394248E-017, 5.00000000E-002
295, -8.33333333E-002, 3.00000000E-002, 5.00000000E-002
296, 0.00000000E+000, -3.00000000E-002, 5.00000000E-002
297, -4.16666667E-002, -2.21796787E-017, 5.00000000E-002
298, 0.00000000E+000, 3.00000000E-002, 5.00000000E-002
299, 8.33333333E-002, -3.00000000E-002, 5.00000000E-002
300, 4.16666667E-002, 1.33821525E-017, 5.00000000E-002
301, 8.33333333E-002, 3.00000000E-002, 5.00000000E-002
302, 1.66666667E-001, -3.00000000E-002, 5.00000000E-002
303, 1.25000000E-001, 4.72092603E-017, 5.00000000E-002
304, 1.66666667E-001, 3.00000000E-002, 5.00000000E-002
305, 2.50000000E-001, -3.00000000E-002, 5.00000000E-002
306, 2.08333333E-001, 8.10363681E-017, 5.00000000E-002
307, 2.50000000E-001, 3.00000000E-002, 5.00000000E-002
308, 3.33333333E-001, -3.00000000E-002, 5.00000000E-002
309, 2.91666667E-001, 1.14429795E-016, 5.00000000E-002
310, 3.33333333E-001, 3.00000000E-002, 5.00000000E-002
311, 4.16666667E-001, -3.00000000E-002, 5.00000000E-002
312, 3.75000000E-001, 1.48040062E-016, 5.00000000E-002
313, 4.16666667E-001, 3.00000000E-002, 5.00000000E-002
314, 4.58333333E-001, 1.82982350E-016, 5.00000000E-002
315, -4.16666667E-001, -1.67400815E-016, 3.94649591E-017
316, -3.33333333E-001, -1.37043155E-016, 2.68882139E-017
317, -2.50000000E-001, -1.08420217E-016, 2.51534904E-017
318, -1.66666667E-001, -6.41847686E-017, 3.81639165E-017
319, -8.33333333E-002, -3.72965547E-017, 3.55618313E-017
320, 0.00000000E+000, -5.20417043E-018, 3.46944695E-017
321, 8.33333333E-002, 2.60208521E-017, 3.90312782E-017
322, 1.66666667E-001, 6.93889390E-017, 4.16333634E-017
323, 2.50000000E-001, 9.54097912E-017, 2.25514052E-017
324, 3.33333333E-001, 1.33573708E-016, 2.77555756E-017
325, 4.16666667E-001, 1.63064007E-016, 3.46944695E-017
326, -4.16666667E-001, -3.00000000E-002, 3.70797143E-017
327, -4.58333333E-001, -1.84314369E-016, 3.70797143E-017
328, -4.16666667E-001, -1.68515995E-016, -2.50000000E-002
329, -4.16666667E-001, 3.00000000E-002, 3.70797143E-017
330, -3.33333333E-001, -3.00000000E-002, 2.38524478E-017
331, -3.75000000E-001, -1.52221985E-016, 3.31765865E-017
332, -3.33333333E-001, -1.37724653E-016, -2.50000000E-002
333, -3.33333333E-001, 3.00000000E-002, 3.07913417E-017
334, -2.50000000E-001, -3.00000000E-002, 2.99239800E-017
335, -2.91666667E-001, -1.22731686E-016, 2.60208521E-017
336, -2.50000000E-001, -1.06065950E-016, -2.50000000E-002
337, -2.50000000E-001, 3.00000000E-002, 2.29850861E-017
338, -1.66666667E-001, -3.00000000E-002, 3.64291930E-017
339, -2.08333333E-001, -8.63024929E-017, 3.16587034E-017
340, -1.66666667E-001, -6.66009906E-017, -2.50000000E-002
341, -1.66666667E-001, 3.00000000E-002, 3.98986399E-017
342, -8.33333333E-002, -3.00000000E-002, 3.51281504E-017
343, -1.25000000E-001, -5.07406617E-017, 3.68628739E-017
344, -8.33333333E-002, -3.92790958E-017, -2.50000000E-002
345, -8.33333333E-002, 3.00000000E-002, 3.85975973E-017
346, 0.00000000E+000, -3.00000000E-002, 3.46944695E-017
347, -4.16666667E-002, -2.12503626E-017, 3.51281504E-017
348, 0.00000000E+000, -4.15094546E-018, -2.50000000E-002
349, 0.00000000E+000, 3.00000000E-002, 3.46944695E-017
350, 8.33333333E-002, -3.00000000E-002, 4.03323208E-017
351, 4.16666667E-002, 1.04083409E-017, 3.68628739E-017
352, 8.33333333E-002, 2.79414388E-017, -2.50000000E-002
353, 8.33333333E-002, 3.00000000E-002, 3.68628739E-017
354, 1.66666667E-001, -3.00000000E-002, 4.16333634E-017
355, 1.25000000E-001, 4.77048956E-017, 4.03323208E-017
356, 1.66666667E-001, 6.69727171E-017, -2.50000000E-002
357, 1.66666667E-001, 3.00000000E-002, 3.81639165E-017
358, 2.50000000E-001, -3.00000000E-002, 2.16840434E-017
359, 2.08333333E-001, 8.23993651E-017, 3.20923843E-017
360, 2.50000000E-001, 9.64630161E-017, -2.50000000E-002
361, 2.50000000E-001, 3.00000000E-002, 2.86229374E-017
362, 3.33333333E-001, -3.00000000E-002, 3.12250226E-017
363, 2.91666667E-001, 1.14491749E-016, 2.51534904E-017
364, 3.33333333E-001, 1.32458528E-016, -2.50000000E-002
365, 3.33333333E-001, 3.00000000E-002, 2.42861287E-017
366, 4.16666667E-001, -3.00000000E-002, 3.46944695E-017
367, 3.75000000E-001, 1.48318857E-016, 3.12250226E-017
368, 4.16666667E-001, 1.63900391E-016, -2.50000000E-002
369, 4.16666667E-001, 3.00000000E-002, 3.46944695E-017
370, 4.58333333E-001, 1.82145965E-016, 3.46944695E-017
371, -4.16666667E-001, -1.68515995E-016, 2.50000000E-002
372, -3.33333333E-001, -1.37724653E-016, 2.50000000E-002
373, -2.50000000E-001, -1.06065950E-016, 2.50000000E-002
374, -1.66666667E-001, -6.66009906E-017, 2.50000000E-002
375, -8.33333333E-002, -3.92790958E-017, 2.50000000E-002
376, 0.00000000E+000, -4.15094546E-018, 2.50000000E-002
377, 8.33333333E-002, 2.79414388E-017, 2.50000000E-002
378, 1.66666667E-001, 6.69727171E-017, 2.50000000E-002
379, 2.50000000E-001, 9.64630161E-017, 2.50000000E-002
380, 3.33333333E-001, 1.32458528E-016, 2.50000000E-002
381, 4.16666667E-001, 1.63900391E-016, 2.50000000E-002
**
** Elements ++++++++++++++++++++++++++++++++++++++++++++++++
**
*Element, Type=C3D20, Elset=Solid_part-1
1, 1, 9, 125, 38, 122, 220, 315, 225, 10, 137, 136, 49, 221, 327, 328,
236, 124, 223, 326, 237
2, 122, 220, 315, 225, 8, 93, 185, 106, 221, 327, 328, 236, 94, 208, 206,
118, 123, 222, 329, 238
3, 38, 125, 126, 39, 225, 315, 316, 226, 136, 139, 138, 50, 328, 331, 332,
239, 237, 326, 330, 240
4, 225, 315, 316, 226, 106, 185, 184, 105, 328, 331, 332, 239, 206, 207, 204,
117, 238, 329, 333, 241
5, 39, 126, 127, 40, 226, 316, 317, 227, 138, 141, 140, 51, 332, 335, 336,
242, 240, 330, 334, 243
6, 226, 316, 317, 227, 105, 184, 183, 104, 332, 335, 336, 242, 204, 205, 202,
116, 241, 333, 337, 244
7, 40, 127, 128, 41, 227, 317, 318, 228, 140, 143, 142, 52, 336, 339, 340,
245, 243, 334, 338, 246
8, 227, 317, 318, 228, 104, 183, 182, 103, 336, 339, 340, 245, 202, 203, 200,
115, 244, 337, 341, 247
9, 41, 128, 129, 42, 228, 318, 319, 229, 142, 145, 144, 53, 340, 343, 344,
248, 246, 338, 342, 249
10, 228, 318, 319, 229, 103, 182, 181, 102, 340, 343, 344, 248, 200, 201, 198,
114, 247, 341, 345, 250
11, 42, 129, 130, 43, 229, 319, 320, 230, 144, 147, 146, 54, 344, 347, 348,
251, 249, 342, 346, 252
12, 229, 319, 320, 230, 102, 181, 180, 101, 344, 347, 348, 251, 198, 199, 196,
113, 250, 345, 349, 253
13, 43, 130, 131, 44, 230, 320, 321, 231, 146, 149, 148, 55, 348, 351, 352,
254, 252, 346, 350, 255
14, 230, 320, 321, 231, 101, 180, 179, 100, 348, 351, 352, 254, 196, 197, 194,
112, 253, 349, 353, 256
15, 44, 131, 132, 45, 231, 321, 322, 232, 148, 151, 150, 56, 352, 355, 356,
257, 255, 350, 354, 258
16, 231, 321, 322, 232, 100, 179, 178, 99, 352, 355, 356, 257, 194, 195, 192,
111, 256, 353, 357, 259
17, 45, 132, 133, 46, 232, 322, 323, 233, 150, 153, 152, 57, 356, 359, 360,
260, 258, 354, 358, 261
18, 232, 322, 323, 233, 99, 178, 177, 98, 356, 359, 360, 260, 192, 193, 190,
110, 259, 357, 361, 262
19, 46, 133, 134, 47, 233, 323, 324, 234, 152, 155, 154, 58, 360, 363, 364,
263, 261, 358, 362, 264
20, 233, 323, 324, 234, 98, 177, 176, 97, 360, 363, 364, 263, 190, 191, 188,
109, 262, 361, 365, 265
21, 47, 134, 135, 48, 234, 324, 325, 235, 154, 157, 156, 59, 364, 367, 368,
266, 264, 362, 366, 267
22, 234, 324, 325, 235, 97, 176, 175, 96, 364, 367, 368, 266, 188, 189, 186,
108, 265, 365, 369, 268
23, 48, 135, 35, 4, 235, 325, 170, 67, 156, 158, 36, 60, 368, 370, 171,
269, 267, 366, 172, 68
24, 235, 325, 170, 67, 96, 175, 64, 6, 368, 370, 171, 269, 186, 187, 65,
107, 268, 369, 173, 69
25, 9, 2, 12, 125, 220, 119, 270, 315, 11, 23, 159, 137, 224, 282, 371,
327, 223, 121, 281, 326
26, 220, 119, 270, 315, 93, 7, 80, 185, 224, 282, 371, 327, 95, 92, 219,
208, 222, 120, 283, 329
27, 125, 12, 13, 126, 315, 270, 271, 316, 159, 24, 160, 139, 371, 285, 372,
331, 326, 281, 284, 330
28, 315, 270, 271, 316, 185, 80, 79, 184, 371, 285, 372, 331, 219, 91, 218,
207, 329, 283, 286, 333
29, 126, 13, 14, 127, 316, 271, 272, 317, 160, 25, 161, 141, 372, 288, 373,
335, 330, 284, 287, 334
30, 316, 271, 272, 317, 184, 79, 78, 183, 372, 288, 373, 335, 218, 90, 217,
205, 333, 286, 289, 337
31, 127, 14, 15, 128, 317, 272, 273, 318, 161, 26, 162, 143, 373, 291, 374,
339, 334, 287, 290, 338
32, 317, 272, 273, 318, 183, 78, 77, 182, 373, 291, 374, 339, 217, 89, 216,
203, 337, 289, 292, 341
33, 128, 15, 16, 129, 318, 273, 274, 319, 162, 27, 163, 145, 374, 294, 375,
343, 338, 290, 293, 342
34, 318, 273, 274, 319, 182, 77, 76, 181, 374, 294, 375, 343, 216, 88, 215,
201, 341, 292, 295, 345
35, 129, 16, 17, 130, 319, 274, 275, 320, 163, 28, 164, 147, 375, 297, 376,
347, 342, 293, 296, 346
36, 319, 274, 275, 320, 181, 76, 75, 180, 375, 297, 376, 347, 215, 87, 214,
199, 345, 295, 298, 349
37, 130, 17, 18, 131, 320, 275, 276, 321, 164, 29, 165, 149, 376, 300, 377,
351, 346, 296, 299, 350
38, 320, 275, 276, 321, 180, 75, 74, 179, 376, 300, 377, 351, 214, 86, 213,
197, 349, 298, 301, 353
39, 131, 18, 19, 132, 321, 276, 277, 322, 165, 30, 166, 151, 377, 303, 378,
355, 350, 299, 302, 354
40, 321, 276, 277, 322, 179, 74, 73, 178, 377, 303, 378, 355, 213, 85, 212,
195, 353, 301, 304, 357
41, 132, 19, 20, 133, 322, 277, 278, 323, 166, 31, 167, 153, 378, 306, 379,
359, 354, 302, 305, 358
42, 322, 277, 278, 323, 178, 73, 72, 177, 378, 306, 379, 359, 212, 84, 211,
193, 357, 304, 307, 361
43, 133, 20, 21, 134, 323, 278, 279, 324, 167, 32, 168, 155, 379, 309, 380,
363, 358, 305, 308, 362
44, 323, 278, 279, 324, 177, 72, 71, 176, 379, 309, 380, 363, 211, 83, 210,
191, 361, 307, 310, 365
45, 134, 21, 22, 135, 324, 279, 280, 325, 168, 33, 169, 157, 380, 312, 381,
367, 362, 308, 311, 366
46, 324, 279, 280, 325, 176, 71, 70, 175, 380, 312, 381, 367, 210, 82, 209,
189, 365, 310, 313, 369
47, 135, 22, 3, 35, 325, 280, 61, 170, 169, 34, 37, 158, 381, 314, 174,
370, 366, 311, 62, 172
48, 325, 280, 61, 170, 175, 70, 5, 64, 381, 314, 174, 370, 209, 81, 66,
187, 369, 313, 63, 173
**
** Node sets +++++++++++++++++++++++++++++++++++++++++++++++
**
*Nset, Nset=Internal_Selection-1_Fixed-1
1, 2, 7, 8, 9, 10, 11, 93, 94, 95, 119, 120, 121, 122, 123, 124, 
220, 221, 222, 223, 224
*Nset, Nset=Internal-1_Internal_Selection-1_Surface_Traction-1
3, 4, 5, 6, 35, 36, 37, 61, 62, 63, 64, 65, 66, 67, 68, 69, 
170, 171, 172, 173, 174
**
** Element sets ++++++++++++++++++++++++++++++++++++++++++++
**
*Elset, Elset=Internal_Selection-1_Solid_Section-1
Solid_part-1
*Elset, Elset=Internal-1_Internal_Selection-1_Surface_Traction-1_S5
23, 24, 47, 48
**
** Surfaces ++++++++++++++++++++++++++++++++++++++++++++++++
**
*Surface, Name=Internal_Selection-1_Surface_Traction-1, Type=Element
Internal-1_Internal_Selection-1_Surface_Traction-1_S5, S5
**
** Physical constants ++++++++++++++++++++++++++++++++++++++
**
**
** Coordinate systems ++++++++++++++++++++++++++++++++++++++
**
**
** Materials +++++++++++++++++++++++++++++++++++++++++++++++
**
*Material, Name=S235
*Density
7800
*Elastic
210000000000, 0.28
*Expansion, Zero=20
1.1E-05
*Conductivity
14
*Specific heat
440
**
** Sections ++++++++++++++++++++++++++++++++++++++++++++++++
**
*Solid section, Elset=Internal_Selection-1_Solid_Section-1, Material=S235
**
** Pre-tension sections ++++++++++++++++++++++++++++++++++++
**
**
** Constraints +++++++++++++++++++++++++++++++++++++++++++++
**
**
** Surface interactions ++++++++++++++++++++++++++++++++++++
**
**
** Contact pairs +++++++++++++++++++++++++++++++++++++++++++
**
**
** Amplitudes ++++++++++++++++++++++++++++++++++++++++++++++
**
**
** Initial conditions ++++++++++++++++++++++++++++++++++++++
**
**
** Steps +++++++++++++++++++++++++++++++++++++++++++++++++++
**
**
** Step-1 ++++++++++++++++++++++++++++++++++++++++++++++++++
**
*Step
*Static
**
** Controls ++++++++++++++++++++++++++++++++++++++++++++++++
**
**
** Output frequency ++++++++++++++++++++++++++++++++++++++++
**
**
** Boundary conditions +++++++++++++++++++++++++++++++++++++
**
*Boundary, op=New
** Name: Fixed-1
*Boundary
Internal_Selection-1_Fixed-1, 1, 6, 0
**
** Loads +++++++++++++++++++++++++++++++++++++++++++++++++++
**
*Cload, op=New
*Dload, op=New
** Name: Surface_Traction-1
*Cload
35, 2, 41.6666666666668
170, 2, 83.3333333333333
67, 2, 41.6666666666667
4, 2, 20.8333333333334
172, 2, -1.66666667E+002
171, 2, -1.66666667E+002
68, 2, -8.33333333E+001
36, 2, -8.33333333E+001
64, 2, 41.6666666666665
6, 2, 20.8333333333333
173, 2, -1.66666667E+002
65, 2, -8.33333333E+001
69, 2, -8.33333333E+001
3, 2, 20.8333333333334
61, 2, 41.6666666666666
62, 2, -8.33333333E+001
174, 2, -1.66666667E+002
37, 2, -8.33333333E+001
5, 2, 20.8333333333333
63, 2, -83.333333333333
66, 2, -83.333333333333
**
** Defined fields ++++++++++++++++++++++++++++++++++++++++++
**
**
** History outputs +++++++++++++++++++++++++++++++++++++++++
**
**
** Field outputs +++++++++++++++++++++++++++++++++++++++++++
**
*Node file
RF, U
*El file
S, E, NOE
**
** End step ++++++++++++++++++++++++++++++++++++++++++++++++
**
*End step
