**
** Heading +++++++++++++++++++++++++++++++++++++++++++++++++
**
*Heading
Hash: FIhiFF3Q, Date: 02/11/2026, Unit system: M_KG_S_C
**
** Nodes +++++++++++++++++++++++++++++++++++++++++++++++++++
**
*Node
1, 5.00000000E-001, 7.00000000E-002, -5.00000000E-002
2, 5.00000000E-001, 7.00000000E-002, 5.00000000E-002
3, -5.00000000E-001, 7.00000000E-002, 5.00000000E-002
4, -5.00000000E-001, 7.00000000E-002, -5.00000000E-002
5, 5.00000000E-001, 9.00000000E-002, 5.00000000E-002
6, 5.00000000E-001, 9.00000000E-002, -5.00000000E-002
7, -5.00000000E-001, 9.00000000E-002, 5.00000000E-002
8, -5.00000000E-001, 9.00000000E-002, -5.00000000E-002
9, 5.00000000E-001, 7.00000000E-002, 3.46944695E-017
10, 5.00000000E-001, 7.00000000E-002, -2.50000000E-002
11, 5.00000000E-001, 7.00000000E-002, 2.50000000E-002
12, 4.16666667E-001, 7.00000000E-002, 5.00000000E-002
13, 3.33333333E-001, 7.00000000E-002, 5.00000000E-002
14, 2.50000000E-001, 7.00000000E-002, 5.00000000E-002
15, 1.66666667E-001, 7.00000000E-002, 5.00000000E-002
16, 8.33333333E-002, 7.00000000E-002, 5.00000000E-002
17, 0.00000000E+000, 7.00000000E-002, 5.00000000E-002
18, -8.33333333E-002, 7.00000000E-002, 5.00000000E-002
19, -1.66666667E-001, 7.00000000E-002, 5.00000000E-002
20, -2.50000000E-001, 7.00000000E-002, 5.00000000E-002
21, -3.33333333E-001, 7.00000000E-002, 5.00000000E-002
22, -4.16666667E-001, 7.00000000E-002, 5.00000000E-002
23, 4.58333333E-001, 7.00000000E-002, 5.00000000E-002
24, 3.75000000E-001, 7.00000000E-002, 5.00000000E-002
25, 2.91666667E-001, 7.00000000E-002, 5.00000000E-002
26, 2.08333333E-001, 7.00000000E-002, 5.00000000E-002
27, 1.25000000E-001, 7.00000000E-002, 5.00000000E-002
28, 4.16666667E-002, 7.00000000E-002, 5.00000000E-002
29, -4.16666667E-002, 7.00000000E-002, 5.00000000E-002
30, -1.25000000E-001, 7.00000000E-002, 5.00000000E-002
31, -2.08333333E-001, 7.00000000E-002, 5.00000000E-002
32, -2.91666667E-001, 7.00000000E-002, 5.00000000E-002
33, -3.75000000E-001, 7.00000000E-002, 5.00000000E-002
34, -4.58333333E-001, 7.00000000E-002, 5.00000000E-002
35, -5.00000000E-001, 7.00000000E-002, 3.46944695E-017
36, -5.00000000E-001, 7.00000000E-002, -2.50000000E-002
37, -5.00000000E-001, 7.00000000E-002, 2.50000000E-002
38, 4.16666667E-001, 7.00000000E-002, -5.00000000E-002
39, 3.33333333E-001, 7.00000000E-002, -5.00000000E-002
40, 2.50000000E-001, 7.00000000E-002, -5.00000000E-002
41, 1.66666667E-001, 7.00000000E-002, -5.00000000E-002
42, 8.33333333E-002, 7.00000000E-002, -5.00000000E-002
43, 0.00000000E+000, 7.00000000E-002, -5.00000000E-002
44, -8.33333333E-002, 7.00000000E-002, -5.00000000E-002
45, -1.66666667E-001, 7.00000000E-002, -5.00000000E-002
46, -2.50000000E-001, 7.00000000E-002, -5.00000000E-002
47, -3.33333333E-001, 7.00000000E-002, -5.00000000E-002
48, -4.16666667E-001, 7.00000000E-002, -5.00000000E-002
49, 4.58333333E-001, 7.00000000E-002, -5.00000000E-002
50, 3.75000000E-001, 7.00000000E-002, -5.00000000E-002
51, 2.91666667E-001, 7.00000000E-002, -5.00000000E-002
52, 2.08333333E-001, 7.00000000E-002, -5.00000000E-002
53, 1.25000000E-001, 7.00000000E-002, -5.00000000E-002
54, 4.16666667E-002, 7.00000000E-002, -5.00000000E-002
55, -4.16666667E-002, 7.00000000E-002, -5.00000000E-002
56, -1.25000000E-001, 7.00000000E-002, -5.00000000E-002
57, -2.08333333E-001, 7.00000000E-002, -5.00000000E-002
58, -2.91666667E-001, 7.00000000E-002, -5.00000000E-002
59, -3.75000000E-001, 7.00000000E-002, -5.00000000E-002
60, -4.58333333E-001, 7.00000000E-002, -5.00000000E-002
61, 5.00000000E-001, 8.00000000E-002, 5.00000000E-002
62, 5.00000000E-001, 9.00000000E-002, 3.46944695E-017
63, 5.00000000E-001, 9.00000000E-002, -2.50000000E-002
64, 5.00000000E-001, 9.00000000E-002, 2.50000000E-002
65, 5.00000000E-001, 8.00000000E-002, -5.00000000E-002
66, 4.16666667E-001, 9.00000000E-002, 5.00000000E-002
67, 3.33333333E-001, 9.00000000E-002, 5.00000000E-002
68, 2.50000000E-001, 9.00000000E-002, 5.00000000E-002
69, 1.66666667E-001, 9.00000000E-002, 5.00000000E-002
70, 8.33333333E-002, 9.00000000E-002, 5.00000000E-002
71, 0.00000000E+000, 9.00000000E-002, 5.00000000E-002
72, -8.33333333E-002, 9.00000000E-002, 5.00000000E-002
73, -1.66666667E-001, 9.00000000E-002, 5.00000000E-002
74, -2.50000000E-001, 9.00000000E-002, 5.00000000E-002
75, -3.33333333E-001, 9.00000000E-002, 5.00000000E-002
76, -4.16666667E-001, 9.00000000E-002, 5.00000000E-002
77, 4.58333333E-001, 9.00000000E-002, 5.00000000E-002
78, 3.75000000E-001, 9.00000000E-002, 5.00000000E-002
79, 2.91666667E-001, 9.00000000E-002, 5.00000000E-002
80, 2.08333333E-001, 9.00000000E-002, 5.00000000E-002
81, 1.25000000E-001, 9.00000000E-002, 5.00000000E-002
82, 4.16666667E-002, 9.00000000E-002, 5.00000000E-002
83, -4.16666667E-002, 9.00000000E-002, 5.00000000E-002
84, -1.25000000E-001, 9.00000000E-002, 5.00000000E-002
85, -2.08333333E-001, 9.00000000E-002, 5.00000000E-002
86, -2.91666667E-001, 9.00000000E-002, 5.00000000E-002
87, -3.75000000E-001, 9.00000000E-002, 5.00000000E-002
88, -4.58333333E-001, 9.00000000E-002, 5.00000000E-002
89, -5.00000000E-001, 9.00000000E-002, 3.46944695E-017
90, -5.00000000E-001, 9.00000000E-002, -2.50000000E-002
91, -5.00000000E-001, 9.00000000E-002, 2.50000000E-002
92, 4.16666667E-001, 9.00000000E-002, -5.00000000E-002
93, 3.33333333E-001, 9.00000000E-002, -5.00000000E-002
94, 2.50000000E-001, 9.00000000E-002, -5.00000000E-002
95, 1.66666667E-001, 9.00000000E-002, -5.00000000E-002
96, 8.33333333E-002, 9.00000000E-002, -5.00000000E-002
97, 0.00000000E+000, 9.00000000E-002, -5.00000000E-002
98, -8.33333333E-002, 9.00000000E-002, -5.00000000E-002
99, -1.66666667E-001, 9.00000000E-002, -5.00000000E-002
100, -2.50000000E-001, 9.00000000E-002, -5.00000000E-002
101, -3.33333333E-001, 9.00000000E-002, -5.00000000E-002
102, -4.16666667E-001, 9.00000000E-002, -5.00000000E-002
103, 4.58333333E-001, 9.00000000E-002, -5.00000000E-002
104, 3.75000000E-001, 9.00000000E-002, -5.00000000E-002
105, 2.91666667E-001, 9.00000000E-002, -5.00000000E-002
106, 2.08333333E-001, 9.00000000E-002, -5.00000000E-002
107, 1.25000000E-001, 9.00000000E-002, -5.00000000E-002
108, 4.16666667E-002, 9.00000000E-002, -5.00000000E-002
109, -4.16666667E-002, 9.00000000E-002, -5.00000000E-002
110, -1.25000000E-001, 9.00000000E-002, -5.00000000E-002
111, -2.08333333E-001, 9.00000000E-002, -5.00000000E-002
112, -2.91666667E-001, 9.00000000E-002, -5.00000000E-002
113, -3.75000000E-001, 9.00000000E-002, -5.00000000E-002
114, -4.58333333E-001, 9.00000000E-002, -5.00000000E-002
115, -5.00000000E-001, 8.00000000E-002, 5.00000000E-002
116, -5.00000000E-001, 8.00000000E-002, -5.00000000E-002
117, 4.16666667E-001, 7.00000000E-002, 3.46944695E-017
118, 3.33333333E-001, 7.00000000E-002, 2.08166817E-017
119, 2.50000000E-001, 7.00000000E-002, 3.46944695E-017
120, 1.66666667E-001, 7.00000000E-002, 3.46944695E-017
121, 8.33333333E-002, 7.00000000E-002, 3.46944695E-017
122, 0.00000000E+000, 7.00000000E-002, 3.46944695E-017
123, -8.33333333E-002, 7.00000000E-002, 4.16333634E-017
124, -1.66666667E-001, 7.00000000E-002, 4.16333634E-017
125, -2.50000000E-001, 7.00000000E-002, 2.08166817E-017
126, -3.33333333E-001, 7.00000000E-002, 3.46944695E-017
127, -4.16666667E-001, 7.00000000E-002, 3.46944695E-017
128, 4.58333333E-001, 7.00000000E-002, 3.46944695E-017
129, 4.16666667E-001, 7.00000000E-002, -2.50000000E-002
130, 3.75000000E-001, 7.00000000E-002, 2.77555756E-017
131, 3.33333333E-001, 7.00000000E-002, -2.50000000E-002
132, 2.91666667E-001, 7.00000000E-002, 2.77555756E-017
133, 2.50000000E-001, 7.00000000E-002, -2.50000000E-002
134, 2.08333333E-001, 7.00000000E-002, 3.46944695E-017
135, 1.66666667E-001, 7.00000000E-002, -2.50000000E-002
136, 1.25000000E-001, 7.00000000E-002, 3.46944695E-017
137, 8.33333333E-002, 7.00000000E-002, -2.50000000E-002
138, 4.16666667E-002, 7.00000000E-002, 3.46944695E-017
139, 0.00000000E+000, 7.00000000E-002, -2.50000000E-002
140, -4.16666667E-002, 7.00000000E-002, 3.81639165E-017
141, -8.33333333E-002, 7.00000000E-002, -2.50000000E-002
142, -1.25000000E-001, 7.00000000E-002, 4.16333634E-017
143, -1.66666667E-001, 7.00000000E-002, -2.50000000E-002
144, -2.08333333E-001, 7.00000000E-002, 3.12250226E-017
145, -2.50000000E-001, 7.00000000E-002, -2.50000000E-002
146, -2.91666667E-001, 7.00000000E-002, 2.77555756E-017
147, -3.33333333E-001, 7.00000000E-002, -2.50000000E-002
148, -3.75000000E-001, 7.00000000E-002, 3.46944695E-017
149, -4.16666667E-001, 7.00000000E-002, -2.50000000E-002
150, -4.58333333E-001, 7.00000000E-002, 3.46944695E-017
151, 4.16666667E-001, 7.00000000E-002, 2.50000000E-002
152, 3.33333333E-001, 7.00000000E-002, 2.50000000E-002
153, 2.50000000E-001, 7.00000000E-002, 2.50000000E-002
154, 1.66666667E-001, 7.00000000E-002, 2.50000000E-002
155, 8.33333333E-002, 7.00000000E-002, 2.50000000E-002
156, 0.00000000E+000, 7.00000000E-002, 2.50000000E-002
157, -8.33333333E-002, 7.00000000E-002, 2.50000000E-002
158, -1.66666667E-001, 7.00000000E-002, 2.50000000E-002
159, -2.50000000E-001, 7.00000000E-002, 2.50000000E-002
160, -3.33333333E-001, 7.00000000E-002, 2.50000000E-002
161, -4.16666667E-001, 7.00000000E-002, 2.50000000E-002
162, 5.00000000E-001, 8.00000000E-002, 3.46944695E-017
163, 4.16666667E-001, 9.00000000E-002, 3.46944695E-017
164, 3.33333333E-001, 9.00000000E-002, 2.08166817E-017
165, 2.50000000E-001, 9.00000000E-002, 3.46944695E-017
166, 1.66666667E-001, 9.00000000E-002, 3.46944695E-017
167, 8.33333333E-002, 9.00000000E-002, 3.46944695E-017
168, 0.00000000E+000, 9.00000000E-002, 3.46944695E-017
169, -8.33333333E-002, 9.00000000E-002, 4.16333634E-017
170, -1.66666667E-001, 9.00000000E-002, 4.16333634E-017
171, -2.50000000E-001, 9.00000000E-002, 2.08166817E-017
172, -3.33333333E-001, 9.00000000E-002, 3.46944695E-017
173, -4.16666667E-001, 9.00000000E-002, 3.46944695E-017
174, 4.16666667E-001, 9.00000000E-002, -2.50000000E-002
175, 4.58333333E-001, 9.00000000E-002, 3.46944695E-017
176, 3.33333333E-001, 9.00000000E-002, -2.50000000E-002
177, 3.75000000E-001, 9.00000000E-002, 2.77555756E-017
178, 2.50000000E-001, 9.00000000E-002, -2.50000000E-002
179, 2.91666667E-001, 9.00000000E-002, 2.77555756E-017
180, 1.66666667E-001, 9.00000000E-002, -2.50000000E-002
181, 2.08333333E-001, 9.00000000E-002, 3.46944695E-017
182, 8.33333333E-002, 9.00000000E-002, -2.50000000E-002
183, 1.25000000E-001, 9.00000000E-002, 3.46944695E-017
184, 0.00000000E+000, 9.00000000E-002, -2.50000000E-002
185, 4.16666667E-002, 9.00000000E-002, 3.46944695E-017
186, -8.33333333E-002, 9.00000000E-002, -2.50000000E-002
187, -4.16666667E-002, 9.00000000E-002, 3.81639165E-017
188, -1.66666667E-001, 9.00000000E-002, -2.50000000E-002
189, -1.25000000E-001, 9.00000000E-002, 4.16333634E-017
190, -2.50000000E-001, 9.00000000E-002, -2.50000000E-002
191, -2.08333333E-001, 9.00000000E-002, 3.12250226E-017
192, -3.33333333E-001, 9.00000000E-002, -2.50000000E-002
193, -2.91666667E-001, 9.00000000E-002, 2.77555756E-017
194, -4.16666667E-001, 9.00000000E-002, -2.50000000E-002
195, -3.75000000E-001, 9.00000000E-002, 3.46944695E-017
196, -4.58333333E-001, 9.00000000E-002, 3.46944695E-017
197, 4.16666667E-001, 9.00000000E-002, 2.50000000E-002
198, 3.33333333E-001, 9.00000000E-002, 2.50000000E-002
199, 2.50000000E-001, 9.00000000E-002, 2.50000000E-002
200, 1.66666667E-001, 9.00000000E-002, 2.50000000E-002
201, 8.33333333E-002, 9.00000000E-002, 2.50000000E-002
202, 0.00000000E+000, 9.00000000E-002, 2.50000000E-002
203, -8.33333333E-002, 9.00000000E-002, 2.50000000E-002
204, -1.66666667E-001, 9.00000000E-002, 2.50000000E-002
205, -2.50000000E-001, 9.00000000E-002, 2.50000000E-002
206, -3.33333333E-001, 9.00000000E-002, 2.50000000E-002
207, -4.16666667E-001, 9.00000000E-002, 2.50000000E-002
208, -5.00000000E-001, 8.00000000E-002, 3.46944695E-017
209, 4.16666667E-001, 8.00000000E-002, -5.00000000E-002
210, 3.33333333E-001, 8.00000000E-002, -5.00000000E-002
211, 2.50000000E-001, 8.00000000E-002, -5.00000000E-002
212, 1.66666667E-001, 8.00000000E-002, -5.00000000E-002
213, 8.33333333E-002, 8.00000000E-002, -5.00000000E-002
214, 0.00000000E+000, 8.00000000E-002, -5.00000000E-002
215, -8.33333333E-002, 8.00000000E-002, -5.00000000E-002
216, -1.66666667E-001, 8.00000000E-002, -5.00000000E-002
217, -2.50000000E-001, 8.00000000E-002, -5.00000000E-002
218, -3.33333333E-001, 8.00000000E-002, -5.00000000E-002
219, -4.16666667E-001, 8.00000000E-002, -5.00000000E-002
220, 4.16666667E-001, 8.00000000E-002, 5.00000000E-002
221, 3.33333333E-001, 8.00000000E-002, 5.00000000E-002
222, 2.50000000E-001, 8.00000000E-002, 5.00000000E-002
223, 1.66666667E-001, 8.00000000E-002, 5.00000000E-002
224, 8.33333333E-002, 8.00000000E-002, 5.00000000E-002
225, 0.00000000E+000, 8.00000000E-002, 5.00000000E-002
226, -8.33333333E-002, 8.00000000E-002, 5.00000000E-002
227, -1.66666667E-001, 8.00000000E-002, 5.00000000E-002
228, -2.50000000E-001, 8.00000000E-002, 5.00000000E-002
229, -3.33333333E-001, 8.00000000E-002, 5.00000000E-002
230, -4.16666667E-001, 8.00000000E-002, 5.00000000E-002
231, 4.16666667E-001, 8.00000000E-002, 3.46944695E-017
232, 3.33333333E-001, 8.00000000E-002, 2.08166817E-017
233, 2.50000000E-001, 8.00000000E-002, 3.46944695E-017
234, 1.66666667E-001, 8.00000000E-002, 3.46944695E-017
235, 8.33333333E-002, 8.00000000E-002, 3.46944695E-017
236, 0.00000000E+000, 8.00000000E-002, 3.46944695E-017
237, -8.33333333E-002, 8.00000000E-002, 4.16333634E-017
238, -1.66666667E-001, 8.00000000E-002, 4.16333634E-017
239, -2.50000000E-001, 8.00000000E-002, 2.08166817E-017
240, -3.33333333E-001, 8.00000000E-002, 3.46944695E-017
241, -4.16666667E-001, 8.00000000E-002, 3.46944695E-017
242, -5.00000000E-001, -7.00000000E-002, -5.00000000E-002
243, -5.00000000E-001, -7.00000000E-002, 5.00000000E-002
244, 5.00000000E-001, -7.00000000E-002, 5.00000000E-002
245, 5.00000000E-001, -7.00000000E-002, -5.00000000E-002
246, 5.00000000E-001, 7.00000000E-002, 5.00000000E-002
247, 5.00000000E-001, 7.00000000E-002, -5.00000000E-002
248, -5.00000000E-001, 7.00000000E-002, 5.00000000E-002
249, -5.00000000E-001, 7.00000000E-002, -5.00000000E-002
250, -5.00000000E-001, -7.00000000E-002, 3.46944695E-017
251, -5.00000000E-001, -7.00000000E-002, -2.50000000E-002
252, -5.00000000E-001, -7.00000000E-002, 2.50000000E-002
253, -4.16666667E-001, -7.00000000E-002, 5.00000000E-002
254, -3.33333333E-001, -7.00000000E-002, 5.00000000E-002
255, -2.50000000E-001, -7.00000000E-002, 5.00000000E-002
256, -1.66666667E-001, -7.00000000E-002, 5.00000000E-002
257, -8.33333333E-002, -7.00000000E-002, 5.00000000E-002
258, 0.00000000E+000, -7.00000000E-002, 5.00000000E-002
259, 8.33333333E-002, -7.00000000E-002, 5.00000000E-002
260, 1.66666667E-001, -7.00000000E-002, 5.00000000E-002
261, 2.50000000E-001, -7.00000000E-002, 5.00000000E-002
262, 3.33333333E-001, -7.00000000E-002, 5.00000000E-002
263, 4.16666667E-001, -7.00000000E-002, 5.00000000E-002
264, -4.58333333E-001, -7.00000000E-002, 5.00000000E-002
265, -3.75000000E-001, -7.00000000E-002, 5.00000000E-002
266, -2.91666667E-001, -7.00000000E-002, 5.00000000E-002
267, -2.08333333E-001, -7.00000000E-002, 5.00000000E-002
268, -1.25000000E-001, -7.00000000E-002, 5.00000000E-002
269, -4.16666667E-002, -7.00000000E-002, 5.00000000E-002
270, 4.16666667E-002, -7.00000000E-002, 5.00000000E-002
271, 1.25000000E-001, -7.00000000E-002, 5.00000000E-002
272, 2.08333333E-001, -7.00000000E-002, 5.00000000E-002
273, 2.91666667E-001, -7.00000000E-002, 5.00000000E-002
274, 3.75000000E-001, -7.00000000E-002, 5.00000000E-002
275, 4.58333333E-001, -7.00000000E-002, 5.00000000E-002
276, 5.00000000E-001, -7.00000000E-002, 3.46944695E-017
277, 5.00000000E-001, -7.00000000E-002, -2.50000000E-002
278, 5.00000000E-001, -7.00000000E-002, 2.50000000E-002
279, -4.16666667E-001, -7.00000000E-002, -5.00000000E-002
280, -3.33333333E-001, -7.00000000E-002, -5.00000000E-002
281, -2.50000000E-001, -7.00000000E-002, -5.00000000E-002
282, -1.66666667E-001, -7.00000000E-002, -5.00000000E-002
283, -8.33333333E-002, -7.00000000E-002, -5.00000000E-002
284, 0.00000000E+000, -7.00000000E-002, -5.00000000E-002
285, 8.33333333E-002, -7.00000000E-002, -5.00000000E-002
286, 1.66666667E-001, -7.00000000E-002, -5.00000000E-002
287, 2.50000000E-001, -7.00000000E-002, -5.00000000E-002
288, 3.33333333E-001, -7.00000000E-002, -5.00000000E-002
289, 4.16666667E-001, -7.00000000E-002, -5.00000000E-002
290, -4.58333333E-001, -7.00000000E-002, -5.00000000E-002
291, -3.75000000E-001, -7.00000000E-002, -5.00000000E-002
292, -2.91666667E-001, -7.00000000E-002, -5.00000000E-002
293, -2.08333333E-001, -7.00000000E-002, -5.00000000E-002
294, -1.25000000E-001, -7.00000000E-002, -5.00000000E-002
295, -4.16666667E-002, -7.00000000E-002, -5.00000000E-002
296, 4.16666667E-002, -7.00000000E-002, -5.00000000E-002
297, 1.25000000E-001, -7.00000000E-002, -5.00000000E-002
298, 2.08333333E-001, -7.00000000E-002, -5.00000000E-002
299, 2.91666667E-001, -7.00000000E-002, -5.00000000E-002
300, 3.75000000E-001, -7.00000000E-002, -5.00000000E-002
301, 4.58333333E-001, -7.00000000E-002, -5.00000000E-002
302, 5.00000000E-001, -1.94289029E-016, 5.00000000E-002
303, 5.00000000E-001, -3.50000000E-002, 5.00000000E-002
304, 5.00000000E-001, 3.50000000E-002, 5.00000000E-002
305, 5.00000000E-001, 7.00000000E-002, 3.46944695E-017
306, 5.00000000E-001, 7.00000000E-002, -2.50000000E-002
307, 5.00000000E-001, 7.00000000E-002, 2.50000000E-002
308, 5.00000000E-001, -1.94289029E-016, -5.00000000E-002
309, 5.00000000E-001, -3.50000000E-002, -5.00000000E-002
310, 5.00000000E-001, 3.50000000E-002, -5.00000000E-002
311, 4.16666667E-001, 7.00000000E-002, 5.00000000E-002
312, 3.33333333E-001, 7.00000000E-002, 5.00000000E-002
313, 2.50000000E-001, 7.00000000E-002, 5.00000000E-002
314, 1.66666667E-001, 7.00000000E-002, 5.00000000E-002
315, 8.33333333E-002, 7.00000000E-002, 5.00000000E-002
316, 0.00000000E+000, 7.00000000E-002, 5.00000000E-002
317, -8.33333333E-002, 7.00000000E-002, 5.00000000E-002
318, -1.66666667E-001, 7.00000000E-002, 5.00000000E-002
319, -2.50000000E-001, 7.00000000E-002, 5.00000000E-002
320, -3.33333333E-001, 7.00000000E-002, 5.00000000E-002
321, -4.16666667E-001, 7.00000000E-002, 5.00000000E-002
322, 4.58333333E-001, 7.00000000E-002, 5.00000000E-002
323, 3.75000000E-001, 7.00000000E-002, 5.00000000E-002
324, 2.91666667E-001, 7.00000000E-002, 5.00000000E-002
325, 2.08333333E-001, 7.00000000E-002, 5.00000000E-002
326, 1.25000000E-001, 7.00000000E-002, 5.00000000E-002
327, 4.16666667E-002, 7.00000000E-002, 5.00000000E-002
328, -4.16666667E-002, 7.00000000E-002, 5.00000000E-002
329, -1.25000000E-001, 7.00000000E-002, 5.00000000E-002
330, -2.08333333E-001, 7.00000000E-002, 5.00000000E-002
331, -2.91666667E-001, 7.00000000E-002, 5.00000000E-002
332, -3.75000000E-001, 7.00000000E-002, 5.00000000E-002
333, -4.58333333E-001, 7.00000000E-002, 5.00000000E-002
334, -5.00000000E-001, 7.00000000E-002, 3.46944695E-017
335, -5.00000000E-001, 7.00000000E-002, -2.50000000E-002
336, -5.00000000E-001, 7.00000000E-002, 2.50000000E-002
337, 4.16666667E-001, 7.00000000E-002, -5.00000000E-002
338, 3.33333333E-001, 7.00000000E-002, -5.00000000E-002
339, 2.50000000E-001, 7.00000000E-002, -5.00000000E-002
340, 1.66666667E-001, 7.00000000E-002, -5.00000000E-002
341, 8.33333333E-002, 7.00000000E-002, -5.00000000E-002
342, 0.00000000E+000, 7.00000000E-002, -5.00000000E-002
343, -8.33333333E-002, 7.00000000E-002, -5.00000000E-002
344, -1.66666667E-001, 7.00000000E-002, -5.00000000E-002
345, -2.50000000E-001, 7.00000000E-002, -5.00000000E-002
346, -3.33333333E-001, 7.00000000E-002, -5.00000000E-002
347, -4.16666667E-001, 7.00000000E-002, -5.00000000E-002
348, 4.58333333E-001, 7.00000000E-002, -5.00000000E-002
349, 3.75000000E-001, 7.00000000E-002, -5.00000000E-002
350, 2.91666667E-001, 7.00000000E-002, -5.00000000E-002
351, 2.08333333E-001, 7.00000000E-002, -5.00000000E-002
352, 1.25000000E-001, 7.00000000E-002, -5.00000000E-002
353, 4.16666667E-002, 7.00000000E-002, -5.00000000E-002
354, -4.16666667E-002, 7.00000000E-002, -5.00000000E-002
355, -1.25000000E-001, 7.00000000E-002, -5.00000000E-002
356, -2.08333333E-001, 7.00000000E-002, -5.00000000E-002
357, -2.91666667E-001, 7.00000000E-002, -5.00000000E-002
358, -3.75000000E-001, 7.00000000E-002, -5.00000000E-002
359, -4.58333333E-001, 7.00000000E-002, -5.00000000E-002
360, -5.00000000E-001, 1.94289029E-016, 5.00000000E-002
361, -5.00000000E-001, 3.50000000E-002, 5.00000000E-002
362, -5.00000000E-001, -3.50000000E-002, 5.00000000E-002
363, -5.00000000E-001, 1.94289029E-016, -5.00000000E-002
364, -5.00000000E-001, 3.50000000E-002, -5.00000000E-002
365, -5.00000000E-001, -3.50000000E-002, -5.00000000E-002
366, -4.16666667E-001, -7.00000000E-002, 3.46944695E-017
367, -3.33333333E-001, -7.00000000E-002, 2.08166817E-017
368, -2.50000000E-001, -7.00000000E-002, 3.46944695E-017
369, -1.66666667E-001, -7.00000000E-002, 3.46944695E-017
370, -8.33333333E-002, -7.00000000E-002, 3.46944695E-017
371, 0.00000000E+000, -7.00000000E-002, 3.46944695E-017
372, 8.33333333E-002, -7.00000000E-002, 4.16333634E-017
373, 1.66666667E-001, -7.00000000E-002, 4.16333634E-017
374, 2.50000000E-001, -7.00000000E-002, 2.08166817E-017
375, 3.33333333E-001, -7.00000000E-002, 3.46944695E-017
376, 4.16666667E-001, -7.00000000E-002, 3.46944695E-017
377, -4.16666667E-001, -7.00000000E-002, -2.50000000E-002
378, -4.58333333E-001, -7.00000000E-002, 3.46944695E-017
379, -3.33333333E-001, -7.00000000E-002, -2.50000000E-002
380, -3.75000000E-001, -7.00000000E-002, 2.77555756E-017
381, -2.50000000E-001, -7.00000000E-002, -2.50000000E-002
382, -2.91666667E-001, -7.00000000E-002, 2.77555756E-017
383, -1.66666667E-001, -7.00000000E-002, -2.50000000E-002
384, -2.08333333E-001, -7.00000000E-002, 3.46944695E-017
385, -8.33333333E-002, -7.00000000E-002, -2.50000000E-002
386, -1.25000000E-001, -7.00000000E-002, 3.46944695E-017
387, 0.00000000E+000, -7.00000000E-002, -2.50000000E-002
388, -4.16666667E-002, -7.00000000E-002, 3.46944695E-017
389, 8.33333333E-002, -7.00000000E-002, -2.50000000E-002
390, 4.16666667E-002, -7.00000000E-002, 3.81639165E-017
391, 1.66666667E-001, -7.00000000E-002, -2.50000000E-002
392, 1.25000000E-001, -7.00000000E-002, 4.16333634E-017
393, 2.50000000E-001, -7.00000000E-002, -2.50000000E-002
394, 2.08333333E-001, -7.00000000E-002, 3.12250226E-017
395, 3.33333333E-001, -7.00000000E-002, -2.50000000E-002
396, 2.91666667E-001, -7.00000000E-002, 2.77555756E-017
397, 4.16666667E-001, -7.00000000E-002, -2.50000000E-002
398, 3.75000000E-001, -7.00000000E-002, 3.46944695E-017
399, 4.58333333E-001, -7.00000000E-002, 3.46944695E-017
400, -4.16666667E-001, -7.00000000E-002, 2.50000000E-002
401, -3.33333333E-001, -7.00000000E-002, 2.50000000E-002
402, -2.50000000E-001, -7.00000000E-002, 2.50000000E-002
403, -1.66666667E-001, -7.00000000E-002, 2.50000000E-002
404, -8.33333333E-002, -7.00000000E-002, 2.50000000E-002
405, 0.00000000E+000, -7.00000000E-002, 2.50000000E-002
406, 8.33333333E-002, -7.00000000E-002, 2.50000000E-002
407, 1.66666667E-001, -7.00000000E-002, 2.50000000E-002
408, 2.50000000E-001, -7.00000000E-002, 2.50000000E-002
409, 3.33333333E-001, -7.00000000E-002, 2.50000000E-002
410, 4.16666667E-001, -7.00000000E-002, 2.50000000E-002
411, 5.00000000E-001, -1.94289029E-016, 4.16333634E-017
412, 5.00000000E-001, -1.94289029E-016, -2.50000000E-002
413, 5.00000000E-001, -3.50000000E-002, 3.81639165E-017
414, 5.00000000E-001, 3.50000000E-002, 3.81639165E-017
415, 5.00000000E-001, -1.94289029E-016, 2.50000000E-002
416, 4.16666667E-001, 7.00000000E-002, 3.46944695E-017
417, 3.33333333E-001, 7.00000000E-002, 2.08166817E-017
418, 2.50000000E-001, 7.00000000E-002, 3.46944695E-017
419, 1.66666667E-001, 7.00000000E-002, 3.46944695E-017
420, 8.33333333E-002, 7.00000000E-002, 3.46944695E-017
421, 0.00000000E+000, 7.00000000E-002, 3.46944695E-017
422, -8.33333333E-002, 7.00000000E-002, 4.16333634E-017
423, -1.66666667E-001, 7.00000000E-002, 4.16333634E-017
424, -2.50000000E-001, 7.00000000E-002, 2.08166817E-017
425, -3.33333333E-001, 7.00000000E-002, 3.46944695E-017
426, -4.16666667E-001, 7.00000000E-002, 3.46944695E-017
427, 4.16666667E-001, 7.00000000E-002, -2.50000000E-002
428, 4.58333333E-001, 7.00000000E-002, 3.46944695E-017
429, 3.33333333E-001, 7.00000000E-002, -2.50000000E-002
430, 3.75000000E-001, 7.00000000E-002, 2.77555756E-017
431, 2.50000000E-001, 7.00000000E-002, -2.50000000E-002
432, 2.91666667E-001, 7.00000000E-002, 2.77555756E-017
433, 1.66666667E-001, 7.00000000E-002, -2.50000000E-002
434, 2.08333333E-001, 7.00000000E-002, 3.46944695E-017
435, 8.33333333E-002, 7.00000000E-002, -2.50000000E-002
436, 1.25000000E-001, 7.00000000E-002, 3.46944695E-017
437, 0.00000000E+000, 7.00000000E-002, -2.50000000E-002
438, 4.16666667E-002, 7.00000000E-002, 3.46944695E-017
439, -8.33333333E-002, 7.00000000E-002, -2.50000000E-002
440, -4.16666667E-002, 7.00000000E-002, 3.81639165E-017
441, -1.66666667E-001, 7.00000000E-002, -2.50000000E-002
442, -1.25000000E-001, 7.00000000E-002, 4.16333634E-017
443, -2.50000000E-001, 7.00000000E-002, -2.50000000E-002
444, -2.08333333E-001, 7.00000000E-002, 3.12250226E-017
445, -3.33333333E-001, 7.00000000E-002, -2.50000000E-002
446, -2.91666667E-001, 7.00000000E-002, 2.77555756E-017
447, -4.16666667E-001, 7.00000000E-002, -2.50000000E-002
448, -3.75000000E-001, 7.00000000E-002, 3.46944695E-017
449, -4.58333333E-001, 7.00000000E-002, 3.46944695E-017
450, 4.16666667E-001, 7.00000000E-002, 2.50000000E-002
451, 3.33333333E-001, 7.00000000E-002, 2.50000000E-002
452, 2.50000000E-001, 7.00000000E-002, 2.50000000E-002
453, 1.66666667E-001, 7.00000000E-002, 2.50000000E-002
454, 8.33333333E-002, 7.00000000E-002, 2.50000000E-002
455, 0.00000000E+000, 7.00000000E-002, 2.50000000E-002
456, -8.33333333E-002, 7.00000000E-002, 2.50000000E-002
457, -1.66666667E-001, 7.00000000E-002, 2.50000000E-002
458, -2.50000000E-001, 7.00000000E-002, 2.50000000E-002
459, -3.33333333E-001, 7.00000000E-002, 2.50000000E-002
460, -4.16666667E-001, 7.00000000E-002, 2.50000000E-002
461, -5.00000000E-001, 1.94289029E-016, 4.16333634E-017
462, -5.00000000E-001, 1.94289029E-016, -2.50000000E-002
463, -5.00000000E-001, 3.50000000E-002, 3.81639165E-017
464, -5.00000000E-001, -3.50000000E-002, 3.81639165E-017
465, -5.00000000E-001, 1.94289029E-016, 2.50000000E-002
466, -4.16666667E-001, 1.59594560E-016, -5.00000000E-002
467, -3.33333333E-001, 1.31838984E-016, -5.00000000E-002
468, -2.50000000E-001, 9.71445147E-017, -5.00000000E-002
469, -1.66666667E-001, 6.24500451E-017, -5.00000000E-002
470, -8.33333333E-002, 3.46944695E-017, -5.00000000E-002
471, 0.00000000E+000, 0.00000000E+000, -5.00000000E-002
472, 8.33333333E-002, -3.46944695E-017, -5.00000000E-002
473, 1.66666667E-001, -6.24500451E-017, -5.00000000E-002
474, 2.50000000E-001, -9.71445147E-017, -5.00000000E-002
475, 3.33333333E-001, -1.31838984E-016, -5.00000000E-002
476, 4.16666667E-001, -1.56125113E-016, -5.00000000E-002
477, -4.58333333E-001, 1.76941795E-016, -5.00000000E-002
478, -4.16666667E-001, -3.50000000E-002, -5.00000000E-002
479, -4.16666667E-001, 3.50000000E-002, -5.00000000E-002
480, -3.75000000E-001, 1.45716772E-016, -5.00000000E-002
481, -3.33333333E-001, -3.50000000E-002, -5.00000000E-002
482, -3.33333333E-001, 3.50000000E-002, -5.00000000E-002
483, -2.91666667E-001, 1.14491749E-016, -5.00000000E-002
484, -2.50000000E-001, -3.50000000E-002, -5.00000000E-002
485, -2.50000000E-001, 3.50000000E-002, -5.00000000E-002
486, -2.08333333E-001, 7.97972799E-017, -5.00000000E-002
487, -1.66666667E-001, -3.50000000E-002, -5.00000000E-002
488, -1.66666667E-001, 3.50000000E-002, -5.00000000E-002
489, -1.25000000E-001, 4.85722573E-017, -5.00000000E-002
490, -8.33333333E-002, -3.50000000E-002, -5.00000000E-002
491, -8.33333333E-002, 3.50000000E-002, -5.00000000E-002
492, -4.16666667E-002, 1.73472348E-017, -5.00000000E-002
493, 0.00000000E+000, -3.50000000E-002, -5.00000000E-002
494, 0.00000000E+000, 3.50000000E-002, -5.00000000E-002
495, 4.16666667E-002, -1.73472348E-017, -5.00000000E-002
496, 8.33333333E-002, -3.50000000E-002, -5.00000000E-002
497, 8.33333333E-002, 3.50000000E-002, -5.00000000E-002
498, 1.25000000E-001, -4.85722573E-017, -5.00000000E-002
499, 1.66666667E-001, -3.50000000E-002, -5.00000000E-002
500, 1.66666667E-001, 3.50000000E-002, -5.00000000E-002
501, 2.08333333E-001, -7.97972799E-017, -5.00000000E-002
502, 2.50000000E-001, -3.50000000E-002, -5.00000000E-002
503, 2.50000000E-001, 3.50000000E-002, -5.00000000E-002
504, 2.91666667E-001, -1.14491749E-016, -5.00000000E-002
505, 3.33333333E-001, -3.50000000E-002, -5.00000000E-002
506, 3.33333333E-001, 3.50000000E-002, -5.00000000E-002
507, 3.75000000E-001, -1.43982049E-016, -5.00000000E-002
508, 4.16666667E-001, -3.50000000E-002, -5.00000000E-002
509, 4.16666667E-001, 3.50000000E-002, -5.00000000E-002
510, 4.58333333E-001, -1.75207071E-016, -5.00000000E-002
511, -4.16666667E-001, 1.59594560E-016, 5.00000000E-002
512, -3.33333333E-001, 1.31838984E-016, 5.00000000E-002
513, -2.50000000E-001, 9.71445147E-017, 5.00000000E-002
514, -1.66666667E-001, 6.24500451E-017, 5.00000000E-002
515, -8.33333333E-002, 3.46944695E-017, 5.00000000E-002
516, 0.00000000E+000, 0.00000000E+000, 5.00000000E-002
517, 8.33333333E-002, -3.46944695E-017, 5.00000000E-002
518, 1.66666667E-001, -6.24500451E-017, 5.00000000E-002
519, 2.50000000E-001, -9.71445147E-017, 5.00000000E-002
520, 3.33333333E-001, -1.31838984E-016, 5.00000000E-002
521, 4.16666667E-001, -1.56125113E-016, 5.00000000E-002
522, -4.16666667E-001, -3.50000000E-002, 5.00000000E-002
523, -4.58333333E-001, 1.76941795E-016, 5.00000000E-002
524, -4.16666667E-001, 3.50000000E-002, 5.00000000E-002
525, -3.33333333E-001, -3.50000000E-002, 5.00000000E-002
526, -3.75000000E-001, 1.45716772E-016, 5.00000000E-002
527, -3.33333333E-001, 3.50000000E-002, 5.00000000E-002
528, -2.50000000E-001, -3.50000000E-002, 5.00000000E-002
529, -2.91666667E-001, 1.14491749E-016, 5.00000000E-002
530, -2.50000000E-001, 3.50000000E-002, 5.00000000E-002
531, -1.66666667E-001, -3.50000000E-002, 5.00000000E-002
532, -2.08333333E-001, 7.97972799E-017, 5.00000000E-002
533, -1.66666667E-001, 3.50000000E-002, 5.00000000E-002
534, -8.33333333E-002, -3.50000000E-002, 5.00000000E-002
535, -1.25000000E-001, 4.85722573E-017, 5.00000000E-002
536, -8.33333333E-002, 3.50000000E-002, 5.00000000E-002
537, 0.00000000E+000, -3.50000000E-002, 5.00000000E-002
538, -4.16666667E-002, 1.73472348E-017, 5.00000000E-002
539, 0.00000000E+000, 3.50000000E-002, 5.00000000E-002
540, 8.33333333E-002, -3.50000000E-002, 5.00000000E-002
541, 4.16666667E-002, -1.73472348E-017, 5.00000000E-002
542, 8.33333333E-002, 3.50000000E-002, 5.00000000E-002
543, 1.66666667E-001, -3.50000000E-002, 5.00000000E-002
544, 1.25000000E-001, -4.85722573E-017, 5.00000000E-002
545, 1.66666667E-001, 3.50000000E-002, 5.00000000E-002
546, 2.50000000E-001, -3.50000000E-002, 5.00000000E-002
547, 2.08333333E-001, -7.97972799E-017, 5.00000000E-002
548, 2.50000000E-001, 3.50000000E-002, 5.00000000E-002
549, 3.33333333E-001, -3.50000000E-002, 5.00000000E-002
550, 2.91666667E-001, -1.14491749E-016, 5.00000000E-002
551, 3.33333333E-001, 3.50000000E-002, 5.00000000E-002
552, 4.16666667E-001, -3.50000000E-002, 5.00000000E-002
553, 3.75000000E-001, -1.43982049E-016, 5.00000000E-002
554, 4.16666667E-001, 3.50000000E-002, 5.00000000E-002
555, 4.58333333E-001, -1.75207071E-016, 5.00000000E-002
556, -4.16666667E-001, 1.58510358E-016, 4.64038530E-017
557, -3.33333333E-001, 1.27935856E-016, 3.55618313E-017
558, -2.50000000E-001, 9.45424294E-017, 3.03576608E-017
559, -1.66666667E-001, 4.59701721E-017, 4.68375339E-017
560, -8.33333333E-002, 2.34187669E-017, 4.33680869E-017
561, 0.00000000E+000, -1.73472348E-018, 4.16333634E-017
562, 8.33333333E-002, -4.68375339E-017, 4.59701721E-017
563, 1.66666667E-001, -7.45931095E-017, 5.03069808E-017
564, 2.50000000E-001, -9.88792381E-017, 2.94902991E-017
565, 3.33333333E-001, -1.43982049E-016, 3.29597460E-017
566, 4.16666667E-001, -1.66533454E-016, 4.16333634E-017
567, -4.16666667E-001, -3.50000000E-002, 4.05491613E-017
568, -4.58333333E-001, 1.76399693E-016, 4.40186082E-017
569, -4.16666667E-001, 1.59052459E-016, -2.50000000E-002
570, -4.16666667E-001, 3.50000000E-002, 4.05491613E-017
571, -3.33333333E-001, -3.50000000E-002, 2.81892565E-017
572, -3.75000000E-001, 1.43223107E-016, 4.09828421E-017
573, -3.33333333E-001, 1.29887420E-016, -2.50000000E-002
574, -3.33333333E-001, 3.50000000E-002, 3.51281504E-017
575, -2.50000000E-001, -3.50000000E-002, 3.25260652E-017
576, -2.91666667E-001, 1.11239143E-016, 3.29597460E-017
577, -2.50000000E-001, 9.58434720E-017, -2.50000000E-002
578, -2.50000000E-001, 3.50000000E-002, 2.55871713E-017
579, -1.66666667E-001, -3.50000000E-002, 4.07660017E-017
580, -2.08333333E-001, 7.02563008E-017, 3.85975973E-017
581, -1.66666667E-001, 5.42101086E-017, -2.50000000E-002
582, -1.66666667E-001, 3.50000000E-002, 4.42354486E-017
583, -8.33333333E-002, -3.50000000E-002, 3.90312782E-017
584, -1.25000000E-001, 3.46944695E-017, 4.51028104E-017
585, -8.33333333E-002, 2.90566182E-017, -2.50000000E-002
586, -8.33333333E-002, 3.50000000E-002, 4.25007252E-017
587, 0.00000000E+000, -3.50000000E-002, 3.81639165E-017
588, -4.16666667E-002, 1.08420217E-017, 4.25007252E-017
589, 0.00000000E+000, -8.67361738E-019, -2.50000000E-002
590, 0.00000000E+000, 3.50000000E-002, 3.81639165E-017
591, 8.33333333E-002, -3.50000000E-002, 4.38017678E-017
592, 4.16666667E-002, -2.42861287E-017, 4.38017678E-017
593, 8.33333333E-002, -4.07660017E-017, -2.50000000E-002
594, 8.33333333E-002, 3.50000000E-002, 4.03323208E-017
595, 1.66666667E-001, -3.50000000E-002, 4.59701721E-017
596, 1.25000000E-001, -6.07153217E-017, 4.81385765E-017
597, 1.66666667E-001, -6.85215773E-017, -2.50000000E-002
598, 1.66666667E-001, 3.50000000E-002, 4.25007252E-017
599, 2.50000000E-001, -3.50000000E-002, 2.51534904E-017
600, 2.08333333E-001, -8.67361738E-017, 3.98986399E-017
601, 2.50000000E-001, -9.80118764E-017, -2.50000000E-002
602, 2.50000000E-001, 3.50000000E-002, 3.20923843E-017
603, 3.33333333E-001, -3.50000000E-002, 3.38271078E-017
604, 2.91666667E-001, -1.21430643E-016, 3.12250226E-017
605, 3.33333333E-001, -1.37910516E-016, -2.50000000E-002
606, 3.33333333E-001, 3.50000000E-002, 2.68882139E-017
607, 4.16666667E-001, -3.50000000E-002, 3.81639165E-017
608, 3.75000000E-001, -1.55257751E-016, 3.72965547E-017
609, 4.16666667E-001, -1.61329283E-016, -2.50000000E-002
610, 4.16666667E-001, 3.50000000E-002, 3.81639165E-017
611, 4.58333333E-001, -1.80411242E-016, 4.16333634E-017
612, -4.16666667E-001, 1.59052459E-016, 2.50000000E-002
613, -3.33333333E-001, 1.29887420E-016, 2.50000000E-002
614, -2.50000000E-001, 9.58434720E-017, 2.50000000E-002
615, -1.66666667E-001, 5.42101086E-017, 2.50000000E-002
616, -8.33333333E-002, 2.90566182E-017, 2.50000000E-002
617, 0.00000000E+000, -8.67361738E-019, 2.50000000E-002
618, 8.33333333E-002, -4.07660017E-017, 2.50000000E-002
619, 1.66666667E-001, -6.85215773E-017, 2.50000000E-002
620, 2.50000000E-001, -9.80118764E-017, 2.50000000E-002
621, 3.33333333E-001, -1.37910516E-016, 2.50000000E-002
622, 4.16666667E-001, -1.61329283E-016, 2.50000000E-002
**
** Elements ++++++++++++++++++++++++++++++++++++++++++++++++
**
*Element, Type=C3D20, Elset=Solid_part-2
1, 117, 9, 1, 38, 163, 62, 6, 92, 128, 10, 49, 129, 175, 63, 103,
174, 231, 162, 65, 209
2, 118, 117, 38, 39, 164, 163, 92, 93, 130, 129, 50, 131, 177, 174, 104,
176, 232, 231, 209, 210
3, 119, 118, 39, 40, 165, 164, 93, 94, 132, 131, 51, 133, 179, 176, 105,
178, 233, 232, 210, 211
4, 120, 119, 40, 41, 166, 165, 94, 95, 134, 133, 52, 135, 181, 178, 106,
180, 234, 233, 211, 212
5, 121, 120, 41, 42, 167, 166, 95, 96, 136, 135, 53, 137, 183, 180, 107,
182, 235, 234, 212, 213
6, 122, 121, 42, 43, 168, 167, 96, 97, 138, 137, 54, 139, 185, 182, 108,
184, 236, 235, 213, 214
7, 123, 122, 43, 44, 169, 168, 97, 98, 140, 139, 55, 141, 187, 184, 109,
186, 237, 236, 214, 215
8, 124, 123, 44, 45, 170, 169, 98, 99, 142, 141, 56, 143, 189, 186, 110,
188, 238, 237, 215, 216
9, 125, 124, 45, 46, 171, 170, 99, 100, 144, 143, 57, 145, 191, 188, 111,
190, 239, 238, 216, 217
10, 126, 125, 46, 47, 172, 171, 100, 101, 146, 145, 58, 147, 193, 190, 112,
192, 240, 239, 217, 218
11, 127, 126, 47, 48, 173, 172, 101, 102, 148, 147, 59, 149, 195, 192, 113,
194, 241, 240, 218, 219
12, 35, 127, 48, 4, 89, 173, 102, 8, 150, 149, 60, 36, 196, 194, 114,
90, 208, 241, 219, 116
13, 12, 2, 9, 117, 66, 5, 62, 163, 23, 11, 128, 151, 77, 64, 175,
197, 220, 61, 162, 231
14, 13, 12, 117, 118, 67, 66, 163, 164, 24, 151, 130, 152, 78, 197, 177,
198, 221, 220, 231, 232
15, 14, 13, 118, 119, 68, 67, 164, 165, 25, 152, 132, 153, 79, 198, 179,
199, 222, 221, 232, 233
16, 15, 14, 119, 120, 69, 68, 165, 166, 26, 153, 134, 154, 80, 199, 181,
200, 223, 222, 233, 234
17, 16, 15, 120, 121, 70, 69, 166, 167, 27, 154, 136, 155, 81, 200, 183,
201, 224, 223, 234, 235
18, 17, 16, 121, 122, 71, 70, 167, 168, 28, 155, 138, 156, 82, 201, 185,
202, 225, 224, 235, 236
19, 18, 17, 122, 123, 72, 71, 168, 169, 29, 156, 140, 157, 83, 202, 187,
203, 226, 225, 236, 237
20, 19, 18, 123, 124, 73, 72, 169, 170, 30, 157, 142, 158, 84, 203, 189,
204, 227, 226, 237, 238
21, 20, 19, 124, 125, 74, 73, 170, 171, 31, 158, 144, 159, 85, 204, 191,
205, 228, 227, 238, 239
22, 21, 20, 125, 126, 75, 74, 171, 172, 32, 159, 146, 160, 86, 205, 193,
206, 229, 228, 239, 240
23, 22, 21, 126, 127, 76, 75, 172, 173, 33, 160, 148, 161, 87, 206, 195,
207, 230, 229, 240, 241
24, 3, 22, 127, 35, 7, 76, 173, 89, 34, 161, 150, 37, 88, 207, 196,
91, 115, 230, 241, 208
*Element, Type=C3D20, Elset=Solid_part-1
25, 242, 250, 366, 279, 363, 461, 556, 466, 251, 378, 377, 290, 462, 568, 569,
477, 365, 464, 567, 478
26, 363, 461, 556, 466, 249, 334, 426, 347, 462, 568, 569, 477, 335, 449, 447,
359, 364, 463, 570, 479
27, 279, 366, 367, 280, 466, 556, 557, 467, 377, 380, 379, 291, 569, 572, 573,
480, 478, 567, 571, 481
28, 466, 556, 557, 467, 347, 426, 425, 346, 569, 572, 573, 480, 447, 448, 445,
358, 479, 570, 574, 482
29, 280, 367, 368, 281, 467, 557, 558, 468, 379, 382, 381, 292, 573, 576, 577,
483, 481, 571, 575, 484
30, 467, 557, 558, 468, 346, 425, 424, 345, 573, 576, 577, 483, 445, 446, 443,
357, 482, 574, 578, 485
31, 281, 368, 369, 282, 468, 558, 559, 469, 381, 384, 383, 293, 577, 580, 581,
486, 484, 575, 579, 487
32, 468, 558, 559, 469, 345, 424, 423, 344, 577, 580, 581, 486, 443, 444, 441,
356, 485, 578, 582, 488
33, 282, 369, 370, 283, 469, 559, 560, 470, 383, 386, 385, 294, 581, 584, 585,
489, 487, 579, 583, 490
34, 469, 559, 560, 470, 344, 423, 422, 343, 581, 584, 585, 489, 441, 442, 439,
355, 488, 582, 586, 491
35, 283, 370, 371, 284, 470, 560, 561, 471, 385, 388, 387, 295, 585, 588, 589,
492, 490, 583, 587, 493
36, 470, 560, 561, 471, 343, 422, 421, 342, 585, 588, 589, 492, 439, 440, 437,
354, 491, 586, 590, 494
37, 284, 371, 372, 285, 471, 561, 562, 472, 387, 390, 389, 296, 589, 592, 593,
495, 493, 587, 591, 496
38, 471, 561, 562, 472, 342, 421, 420, 341, 589, 592, 593, 495, 437, 438, 435,
353, 494, 590, 594, 497
39, 285, 372, 373, 286, 472, 562, 563, 473, 389, 392, 391, 297, 593, 596, 597,
498, 496, 591, 595, 499
40, 472, 562, 563, 473, 341, 420, 419, 340, 593, 596, 597, 498, 435, 436, 433,
352, 497, 594, 598, 500
41, 286, 373, 374, 287, 473, 563, 564, 474, 391, 394, 393, 298, 597, 600, 601,
501, 499, 595, 599, 502
42, 473, 563, 564, 474, 340, 419, 418, 339, 597, 600, 601, 501, 433, 434, 431,
351, 500, 598, 602, 503
43, 287, 374, 375, 288, 474, 564, 565, 475, 393, 396, 395, 299, 601, 604, 605,
504, 502, 599, 603, 505
44, 474, 564, 565, 475, 339, 418, 417, 338, 601, 604, 605, 504, 431, 432, 429,
350, 503, 602, 606, 506
45, 288, 375, 376, 289, 475, 565, 566, 476, 395, 398, 397, 300, 605, 608, 609,
507, 505, 603, 607, 508
46, 475, 565, 566, 476, 338, 417, 416, 337, 605, 608, 609, 507, 429, 430, 427,
349, 506, 606, 610, 509
47, 289, 376, 276, 245, 476, 566, 411, 308, 397, 399, 277, 301, 609, 611, 412,
510, 508, 607, 413, 309
48, 476, 566, 411, 308, 337, 416, 305, 247, 609, 611, 412, 510, 427, 428, 306,
348, 509, 610, 414, 310
49, 250, 243, 253, 366, 461, 360, 511, 556, 252, 264, 400, 378, 465, 523, 612,
568, 464, 362, 522, 567
50, 461, 360, 511, 556, 334, 248, 321, 426, 465, 523, 612, 568, 336, 333, 460,
449, 463, 361, 524, 570
51, 366, 253, 254, 367, 556, 511, 512, 557, 400, 265, 401, 380, 612, 526, 613,
572, 567, 522, 525, 571
52, 556, 511, 512, 557, 426, 321, 320, 425, 612, 526, 613, 572, 460, 332, 459,
448, 570, 524, 527, 574
53, 367, 254, 255, 368, 557, 512, 513, 558, 401, 266, 402, 382, 613, 529, 614,
576, 571, 525, 528, 575
54, 557, 512, 513, 558, 425, 320, 319, 424, 613, 529, 614, 576, 459, 331, 458,
446, 574, 527, 530, 578
55, 368, 255, 256, 369, 558, 513, 514, 559, 402, 267, 403, 384, 614, 532, 615,
580, 575, 528, 531, 579
56, 558, 513, 514, 559, 424, 319, 318, 423, 614, 532, 615, 580, 458, 330, 457,
444, 578, 530, 533, 582
57, 369, 256, 257, 370, 559, 514, 515, 560, 403, 268, 404, 386, 615, 535, 616,
584, 579, 531, 534, 583
58, 559, 514, 515, 560, 423, 318, 317, 422, 615, 535, 616, 584, 457, 329, 456,
442, 582, 533, 536, 586
59, 370, 257, 258, 371, 560, 515, 516, 561, 404, 269, 405, 388, 616, 538, 617,
588, 583, 534, 537, 587
60, 560, 515, 516, 561, 422, 317, 316, 421, 616, 538, 617, 588, 456, 328, 455,
440, 586, 536, 539, 590
61, 371, 258, 259, 372, 561, 516, 517, 562, 405, 270, 406, 390, 617, 541, 618,
592, 587, 537, 540, 591
62, 561, 516, 517, 562, 421, 316, 315, 420, 617, 541, 618, 592, 455, 327, 454,
438, 590, 539, 542, 594
63, 372, 259, 260, 373, 562, 517, 518, 563, 406, 271, 407, 392, 618, 544, 619,
596, 591, 540, 543, 595
64, 562, 517, 518, 563, 420, 315, 314, 419, 618, 544, 619, 596, 454, 326, 453,
436, 594, 542, 545, 598
65, 373, 260, 261, 374, 563, 518, 519, 564, 407, 272, 408, 394, 619, 547, 620,
600, 595, 543, 546, 599
66, 563, 518, 519, 564, 419, 314, 313, 418, 619, 547, 620, 600, 453, 325, 452,
434, 598, 545, 548, 602
67, 374, 261, 262, 375, 564, 519, 520, 565, 408, 273, 409, 396, 620, 550, 621,
604, 599, 546, 549, 603
68, 564, 519, 520, 565, 418, 313, 312, 417, 620, 550, 621, 604, 452, 324, 451,
432, 602, 548, 551, 606
69, 375, 262, 263, 376, 565, 520, 521, 566, 409, 274, 410, 398, 621, 553, 622,
608, 603, 549, 552, 607
70, 565, 520, 521, 566, 417, 312, 311, 416, 621, 553, 622, 608, 451, 323, 450,
430, 606, 551, 554, 610
71, 376, 263, 244, 276, 566, 521, 302, 411, 410, 275, 278, 399, 622, 555, 415,
611, 607, 552, 303, 413
72, 566, 521, 302, 411, 416, 311, 246, 305, 622, 555, 415, 611, 450, 322, 307,
428, 610, 554, 304, 414
**
** Node sets +++++++++++++++++++++++++++++++++++++++++++++++
**
*Nset, Nset=Internal-1_Internal_Selection-1_Solid_part-2_to_Solid_part-1_Master
1, 2, 3, 4, 9, 10, 11, 12, 13, 14, 15, 16, 17, 18, 19, 20, 
21, 22, 23, 24, 25, 26, 27, 28, 29, 30, 31, 32, 33, 34, 35, 36, 
37, 38, 39, 40, 41, 42, 43, 44, 45, 46, 47, 48, 49, 50, 51, 52, 
53, 54, 55, 56, 57, 58, 59, 60, 117, 118, 119, 120, 121, 122, 123, 124, 
125, 126, 127, 128, 129, 130, 131, 132, 133, 134, 135, 136, 137, 138, 139, 140, 
141, 142, 143, 144, 145, 146, 147, 148, 149, 150, 151, 152, 153, 154, 155, 156, 
157, 158, 159, 160, 161
*Nset, Nset=Internal-1_Internal_Selection-1_Solid_part-2_to_Solid_part-1_Slave
246, 247, 248, 249, 305, 306, 307, 311, 312, 313, 314, 315, 316, 317, 318, 319, 
320, 321, 322, 323, 324, 325, 326, 327, 328, 329, 330, 331, 332, 333, 334, 335, 
336, 337, 338, 339, 340, 341, 342, 343, 344, 345, 346, 347, 348, 349, 350, 351, 
352, 353, 354, 355, 356, 357, 358, 359, 416, 417, 418, 419, 420, 421, 422, 423, 
424, 425, 426, 427, 428, 429, 430, 431, 432, 433, 434, 435, 436, 437, 438, 439, 
440, 441, 442, 443, 444, 445, 446, 447, 448, 449, 450, 451, 452, 453, 454, 455, 
456, 457, 458, 459, 460
*Nset, Nset=Internal_Selection-1_Fixed-1
3, 4, 7, 8, 35, 36, 37, 89, 90, 91, 115, 116, 208, 242, 243, 248, 
249, 250, 251, 252, 334, 335, 336, 360, 361, 362, 363, 364, 365, 461, 462, 463, 
464, 465
*Nset, Nset=Internal-1_Internal_Selection-1_Surface_Traction-1
1, 2, 5, 6, 9, 10, 11, 61, 62, 63, 64, 65, 162, 244, 245, 246, 
247, 276, 277, 278, 302, 303, 304, 305, 306, 307, 308, 309, 310, 411, 412, 413, 
414, 415
**
** Element sets ++++++++++++++++++++++++++++++++++++++++++++
**
*Elset, Elset=Internal-1_Internal_Selection-1_Solid_part-2_to_Solid_part-1_Master_S1
1, 2, 3, 4, 5, 6, 7, 8, 9, 10, 11, 12, 13, 14, 15, 16, 
17, 18, 19, 20, 21, 22, 23, 24
*Elset, Elset=Internal-1_Internal_Selection-1_Solid_part-2_to_Solid_part-1_Slave_S2
26, 28, 30, 32, 34, 36, 38, 40, 42, 44, 46, 48, 50, 52, 54, 56, 
58, 60, 62, 64, 66, 68, 70, 72
*Elset, Elset=Internal_Selection-1_Solid_Section-1
Solid_part-2, 
Solid_part-1
*Elset, Elset=Internal-1_Internal_Selection-1_Surface_Traction-1_S4
1, 13
*Elset, Elset=Internal-1_Internal_Selection-1_Surface_Traction-1_S5
47, 48, 71, 72
**
** Surfaces ++++++++++++++++++++++++++++++++++++++++++++++++
**
*Surface, Name=Internal_Selection-1_Solid_part-2_to_Solid_part-1_Master, Type=Element
Internal-1_Internal_Selection-1_Solid_part-2_to_Solid_part-1_Master_S1, S1
*Surface, Name=Internal_Selection-1_Solid_part-2_to_Solid_part-1_Slave, Type=Element
Internal-1_Internal_Selection-1_Solid_part-2_to_Solid_part-1_Slave_S2, S2
*Surface, Name=Internal_Selection-1_Surface_Traction-1, Type=Element
Internal-1_Internal_Selection-1_Surface_Traction-1_S4, S4
Internal-1_Internal_Selection-1_Surface_Traction-1_S5, S5
**
** Physical constants ++++++++++++++++++++++++++++++++++++++
**
**
** Coordinate systems ++++++++++++++++++++++++++++++++++++++
**
**
** Materials +++++++++++++++++++++++++++++++++++++++++++++++
**
*Material, Name=S235
*Density
7800
*Elastic
210000000000, 0.28
*Expansion, Zero=20
1.1E-05
*Conductivity
14
*Specific heat
440
**
** Sections ++++++++++++++++++++++++++++++++++++++++++++++++
**
*Solid section, Elset=Internal_Selection-1_Solid_Section-1, Material=S235
**
** Pre-tension sections ++++++++++++++++++++++++++++++++++++
**
**
** Constraints +++++++++++++++++++++++++++++++++++++++++++++
**
*Tie, Name=Solid_part-2_to_Solid_part-1, Position tolerance=0.001, Adjust=No
Internal_Selection-1_Solid_part-2_to_Solid_part-1_Slave, Internal_Selection-1_Solid_part-2_to_Solid_part-1_Master
**
** Surface interactions ++++++++++++++++++++++++++++++++++++
**
**
** Contact pairs +++++++++++++++++++++++++++++++++++++++++++
**
**
** Amplitudes ++++++++++++++++++++++++++++++++++++++++++++++
**
**
** Initial conditions ++++++++++++++++++++++++++++++++++++++
**
**
** Steps +++++++++++++++++++++++++++++++++++++++++++++++++++
**
**
** Step-1 ++++++++++++++++++++++++++++++++++++++++++++++++++
**
*Step
*Static
**
** Controls ++++++++++++++++++++++++++++++++++++++++++++++++
**
**
** Output frequency ++++++++++++++++++++++++++++++++++++++++
**
**
** Boundary conditions +++++++++++++++++++++++++++++++++++++
**
*Boundary, op=New
** Name: Fixed-1
*Boundary
Internal_Selection-1_Fixed-1, 1, 6, 0
**
** Loads +++++++++++++++++++++++++++++++++++++++++++++++++++
**
*Cload, op=New
*Dload, op=New
** Name: Surface_Traction-1
*Cload
9, 2, 10.4166666666667
62, 2, 10.4166666666667
6, 2, 5.20833333333333
1, 2, 5.20833333333333
162, 2, -4.16666667E+001
63, 2, -2.08333333E+001
65, 2, -2.08333333E+001
10, 2, -2.08333333E+001
2, 2, 5.20833333333333
5, 2, 5.20833333333333
61, 2, -2.08333333E+001
64, 2, -2.08333333E+001
11, 2, -2.08333333E+001
276, 2, 36.4583333333332
411, 2, 72.9166666666667
308, 2, 36.4583333333334
245, 2, 18.2291666666666
413, 2, -1.45833333E+002
412, 2, -1.45833333E+002
309, 2, -7.29166667E+001
277, 2, -7.29166667E+001
305, 2, 36.4583333333334
247, 2, 18.2291666666667
414, 2, -1.45833333E+002
306, 2, -7.29166667E+001
310, 2, -7.29166667E+001
244, 2, 18.2291666666666
302, 2, 36.4583333333333
303, 2, -7.29166667E+001
415, 2, -1.45833333E+002
278, 2, -7.29166667E+001
246, 2, 18.2291666666667
304, 2, -7.29166667E+001
307, 2, -7.29166667E+001
**
** Defined fields ++++++++++++++++++++++++++++++++++++++++++
**
**
** History outputs +++++++++++++++++++++++++++++++++++++++++
**
**
** Field outputs +++++++++++++++++++++++++++++++++++++++++++
**
*Node file
RF, U
*El file
S, E, NOE
**
** End step ++++++++++++++++++++++++++++++++++++++++++++++++
**
*End step
