**
** Heading +++++++++++++++++++++++++++++++++++++++++++++++++
**
*Heading
Hash: 3KUxk92N, Date: 02/12/2026, Unit system: M_KG_S_C
**
** Nodes +++++++++++++++++++++++++++++++++++++++++++++++++++
**
*Node
1, -5.00000000E-001, -7.00000000E-002, -5.00000000E-002
2, -5.00000000E-001, -7.00000000E-002, 5.00000000E-002
3, 5.00000000E-001, -7.00000000E-002, 5.00000000E-002
4, 5.00000000E-001, -7.00000000E-002, -5.00000000E-002
5, 5.00000000E-001, 7.00000000E-002, 5.00000000E-002
6, 5.00000000E-001, 7.00000000E-002, -5.00000000E-002
7, -5.00000000E-001, 7.00000000E-002, -5.00000000E-002
8, -5.00000000E-001, 7.00000000E-002, 5.00000000E-002
9, -5.00000000E-001, -7.00000000E-002, 3.46944695E-017
10, -5.00000000E-001, -7.00000000E-002, -2.50000000E-002
11, -5.00000000E-001, -7.00000000E-002, 2.50000000E-002
12, -4.16666667E-001, -7.00000000E-002, 5.00000000E-002
13, -3.33333333E-001, -7.00000000E-002, 5.00000000E-002
14, -2.50000000E-001, -7.00000000E-002, 5.00000000E-002
15, -1.66666667E-001, -7.00000000E-002, 5.00000000E-002
16, -8.33333333E-002, -7.00000000E-002, 5.00000000E-002
17, 0.00000000E+000, -7.00000000E-002, 5.00000000E-002
18, 8.33333333E-002, -7.00000000E-002, 5.00000000E-002
19, 1.66666667E-001, -7.00000000E-002, 5.00000000E-002
20, 2.50000000E-001, -7.00000000E-002, 5.00000000E-002
21, 3.33333333E-001, -7.00000000E-002, 5.00000000E-002
22, 4.16666667E-001, -7.00000000E-002, 5.00000000E-002
23, -4.58333333E-001, -7.00000000E-002, 5.00000000E-002
24, -3.75000000E-001, -7.00000000E-002, 5.00000000E-002
25, -2.91666667E-001, -7.00000000E-002, 5.00000000E-002
26, -2.08333333E-001, -7.00000000E-002, 5.00000000E-002
27, -1.25000000E-001, -7.00000000E-002, 5.00000000E-002
28, -4.16666667E-002, -7.00000000E-002, 5.00000000E-002
29, 4.16666667E-002, -7.00000000E-002, 5.00000000E-002
30, 1.25000000E-001, -7.00000000E-002, 5.00000000E-002
31, 2.08333333E-001, -7.00000000E-002, 5.00000000E-002
32, 2.91666667E-001, -7.00000000E-002, 5.00000000E-002
33, 3.75000000E-001, -7.00000000E-002, 5.00000000E-002
34, 4.58333333E-001, -7.00000000E-002, 5.00000000E-002
35, 5.00000000E-001, -7.00000000E-002, 3.46944695E-017
36, 5.00000000E-001, -7.00000000E-002, -2.50000000E-002
37, 5.00000000E-001, -7.00000000E-002, 2.50000000E-002
38, -4.16666667E-001, -7.00000000E-002, -5.00000000E-002
39, -3.33333333E-001, -7.00000000E-002, -5.00000000E-002
40, -2.50000000E-001, -7.00000000E-002, -5.00000000E-002
41, -1.66666667E-001, -7.00000000E-002, -5.00000000E-002
42, -8.33333333E-002, -7.00000000E-002, -5.00000000E-002
43, 0.00000000E+000, -7.00000000E-002, -5.00000000E-002
44, 8.33333333E-002, -7.00000000E-002, -5.00000000E-002
45, 1.66666667E-001, -7.00000000E-002, -5.00000000E-002
46, 2.50000000E-001, -7.00000000E-002, -5.00000000E-002
47, 3.33333333E-001, -7.00000000E-002, -5.00000000E-002
48, 4.16666667E-001, -7.00000000E-002, -5.00000000E-002
49, -4.58333333E-001, -7.00000000E-002, -5.00000000E-002
50, -3.75000000E-001, -7.00000000E-002, -5.00000000E-002
51, -2.91666667E-001, -7.00000000E-002, -5.00000000E-002
52, -2.08333333E-001, -7.00000000E-002, -5.00000000E-002
53, -1.25000000E-001, -7.00000000E-002, -5.00000000E-002
54, -4.16666667E-002, -7.00000000E-002, -5.00000000E-002
55, 4.16666667E-002, -7.00000000E-002, -5.00000000E-002
56, 1.25000000E-001, -7.00000000E-002, -5.00000000E-002
57, 2.08333333E-001, -7.00000000E-002, -5.00000000E-002
58, 2.91666667E-001, -7.00000000E-002, -5.00000000E-002
59, 3.75000000E-001, -7.00000000E-002, -5.00000000E-002
60, 4.58333333E-001, -7.00000000E-002, -5.00000000E-002
61, 5.00000000E-001, -1.94289029E-016, 5.00000000E-002
62, 5.00000000E-001, -3.50000000E-002, 5.00000000E-002
63, 5.00000000E-001, 3.50000000E-002, 5.00000000E-002
64, 5.00000000E-001, 7.00000000E-002, 3.46944695E-017
65, 5.00000000E-001, 7.00000000E-002, -2.50000000E-002
66, 5.00000000E-001, 7.00000000E-002, 2.50000000E-002
67, 5.00000000E-001, -1.94289029E-016, -5.00000000E-002
68, 5.00000000E-001, -3.50000000E-002, -5.00000000E-002
69, 5.00000000E-001, 3.50000000E-002, -5.00000000E-002
70, -5.00000000E-001, 7.00000000E-002, 3.46944695E-017
71, -5.00000000E-001, 7.00000000E-002, -2.50000000E-002
72, -5.00000000E-001, 7.00000000E-002, 2.50000000E-002
73, -4.16666667E-001, 7.00000000E-002, 5.00000000E-002
74, -3.33333333E-001, 7.00000000E-002, 5.00000000E-002
75, -2.50000000E-001, 7.00000000E-002, 5.00000000E-002
76, -1.66666667E-001, 7.00000000E-002, 5.00000000E-002
77, -8.33333333E-002, 7.00000000E-002, 5.00000000E-002
78, 0.00000000E+000, 7.00000000E-002, 5.00000000E-002
79, 8.33333333E-002, 7.00000000E-002, 5.00000000E-002
80, 1.66666667E-001, 7.00000000E-002, 5.00000000E-002
81, 2.50000000E-001, 7.00000000E-002, 5.00000000E-002
82, 3.33333333E-001, 7.00000000E-002, 5.00000000E-002
83, 4.16666667E-001, 7.00000000E-002, 5.00000000E-002
84, -4.58333333E-001, 7.00000000E-002, 5.00000000E-002
85, -3.75000000E-001, 7.00000000E-002, 5.00000000E-002
86, -2.91666667E-001, 7.00000000E-002, 5.00000000E-002
87, -2.08333333E-001, 7.00000000E-002, 5.00000000E-002
88, -1.25000000E-001, 7.00000000E-002, 5.00000000E-002
89, -4.16666667E-002, 7.00000000E-002, 5.00000000E-002
90, 4.16666667E-002, 7.00000000E-002, 5.00000000E-002
91, 1.25000000E-001, 7.00000000E-002, 5.00000000E-002
92, 2.08333333E-001, 7.00000000E-002, 5.00000000E-002
93, 2.91666667E-001, 7.00000000E-002, 5.00000000E-002
94, 3.75000000E-001, 7.00000000E-002, 5.00000000E-002
95, 4.58333333E-001, 7.00000000E-002, 5.00000000E-002
96, -4.16666667E-001, 7.00000000E-002, -5.00000000E-002
97, -3.33333333E-001, 7.00000000E-002, -5.00000000E-002
98, -2.50000000E-001, 7.00000000E-002, -5.00000000E-002
99, -1.66666667E-001, 7.00000000E-002, -5.00000000E-002
100, -8.33333333E-002, 7.00000000E-002, -5.00000000E-002
101, 0.00000000E+000, 7.00000000E-002, -5.00000000E-002
102, 8.33333333E-002, 7.00000000E-002, -5.00000000E-002
103, 1.66666667E-001, 7.00000000E-002, -5.00000000E-002
104, 2.50000000E-001, 7.00000000E-002, -5.00000000E-002
105, 3.33333333E-001, 7.00000000E-002, -5.00000000E-002
106, 4.16666667E-001, 7.00000000E-002, -5.00000000E-002
107, -4.58333333E-001, 7.00000000E-002, -5.00000000E-002
108, -3.75000000E-001, 7.00000000E-002, -5.00000000E-002
109, -2.91666667E-001, 7.00000000E-002, -5.00000000E-002
110, -2.08333333E-001, 7.00000000E-002, -5.00000000E-002
111, -1.25000000E-001, 7.00000000E-002, -5.00000000E-002
112, -4.16666667E-002, 7.00000000E-002, -5.00000000E-002
113, 4.16666667E-002, 7.00000000E-002, -5.00000000E-002
114, 1.25000000E-001, 7.00000000E-002, -5.00000000E-002
115, 2.08333333E-001, 7.00000000E-002, -5.00000000E-002
116, 2.91666667E-001, 7.00000000E-002, -5.00000000E-002
117, 3.75000000E-001, 7.00000000E-002, -5.00000000E-002
118, 4.58333333E-001, 7.00000000E-002, -5.00000000E-002
119, -5.00000000E-001, 1.94289029E-016, 5.00000000E-002
120, -5.00000000E-001, 3.50000000E-002, 5.00000000E-002
121, -5.00000000E-001, -3.50000000E-002, 5.00000000E-002
122, -5.00000000E-001, 1.94289029E-016, -5.00000000E-002
123, -5.00000000E-001, 3.50000000E-002, -5.00000000E-002
124, -5.00000000E-001, -3.50000000E-002, -5.00000000E-002
125, -4.16666667E-001, -7.00000000E-002, 3.46944695E-017
126, -3.33333333E-001, -7.00000000E-002, 2.08166817E-017
127, -2.50000000E-001, -7.00000000E-002, 3.46944695E-017
128, -1.66666667E-001, -7.00000000E-002, 3.46944695E-017
129, -8.33333333E-002, -7.00000000E-002, 3.46944695E-017
130, 0.00000000E+000, -7.00000000E-002, 3.46944695E-017
131, 8.33333333E-002, -7.00000000E-002, 4.16333634E-017
132, 1.66666667E-001, -7.00000000E-002, 4.16333634E-017
133, 2.50000000E-001, -7.00000000E-002, 2.08166817E-017
134, 3.33333333E-001, -7.00000000E-002, 3.46944695E-017
135, 4.16666667E-001, -7.00000000E-002, 3.46944695E-017
136, -4.16666667E-001, -7.00000000E-002, -2.50000000E-002
137, -4.58333333E-001, -7.00000000E-002, 3.46944695E-017
138, -3.33333333E-001, -7.00000000E-002, -2.50000000E-002
139, -3.75000000E-001, -7.00000000E-002, 2.77555756E-017
140, -2.50000000E-001, -7.00000000E-002, -2.50000000E-002
141, -2.91666667E-001, -7.00000000E-002, 2.77555756E-017
142, -1.66666667E-001, -7.00000000E-002, -2.50000000E-002
143, -2.08333333E-001, -7.00000000E-002, 3.46944695E-017
144, -8.33333333E-002, -7.00000000E-002, -2.50000000E-002
145, -1.25000000E-001, -7.00000000E-002, 3.46944695E-017
146, 0.00000000E+000, -7.00000000E-002, -2.50000000E-002
147, -4.16666667E-002, -7.00000000E-002, 3.46944695E-017
148, 8.33333333E-002, -7.00000000E-002, -2.50000000E-002
149, 4.16666667E-002, -7.00000000E-002, 3.81639165E-017
150, 1.66666667E-001, -7.00000000E-002, -2.50000000E-002
151, 1.25000000E-001, -7.00000000E-002, 4.16333634E-017
152, 2.50000000E-001, -7.00000000E-002, -2.50000000E-002
153, 2.08333333E-001, -7.00000000E-002, 3.12250226E-017
154, 3.33333333E-001, -7.00000000E-002, -2.50000000E-002
155, 2.91666667E-001, -7.00000000E-002, 2.77555756E-017
156, 4.16666667E-001, -7.00000000E-002, -2.50000000E-002
157, 3.75000000E-001, -7.00000000E-002, 3.46944695E-017
158, 4.58333333E-001, -7.00000000E-002, 3.46944695E-017
159, -4.16666667E-001, -7.00000000E-002, 2.50000000E-002
160, -3.33333333E-001, -7.00000000E-002, 2.50000000E-002
161, -2.50000000E-001, -7.00000000E-002, 2.50000000E-002
162, -1.66666667E-001, -7.00000000E-002, 2.50000000E-002
163, -8.33333333E-002, -7.00000000E-002, 2.50000000E-002
164, 0.00000000E+000, -7.00000000E-002, 2.50000000E-002
165, 8.33333333E-002, -7.00000000E-002, 2.50000000E-002
166, 1.66666667E-001, -7.00000000E-002, 2.50000000E-002
167, 2.50000000E-001, -7.00000000E-002, 2.50000000E-002
168, 3.33333333E-001, -7.00000000E-002, 2.50000000E-002
169, 4.16666667E-001, -7.00000000E-002, 2.50000000E-002
170, 5.00000000E-001, -1.94289029E-016, 4.16333634E-017
171, 5.00000000E-001, -1.94289029E-016, -2.50000000E-002
172, 5.00000000E-001, -3.50000000E-002, 3.81639165E-017
173, 5.00000000E-001, 3.50000000E-002, 3.81639165E-017
174, 5.00000000E-001, -1.94289029E-016, 2.50000000E-002
175, -4.16666667E-001, 7.00000000E-002, 3.46944695E-017
176, -3.33333333E-001, 7.00000000E-002, 2.08166817E-017
177, -2.50000000E-001, 7.00000000E-002, 3.46944695E-017
178, -1.66666667E-001, 7.00000000E-002, 3.46944695E-017
179, -8.33333333E-002, 7.00000000E-002, 3.46944695E-017
180, 0.00000000E+000, 7.00000000E-002, 3.46944695E-017
181, 8.33333333E-002, 7.00000000E-002, 4.16333634E-017
182, 1.66666667E-001, 7.00000000E-002, 4.16333634E-017
183, 2.50000000E-001, 7.00000000E-002, 2.08166817E-017
184, 3.33333333E-001, 7.00000000E-002, 3.46944695E-017
185, 4.16666667E-001, 7.00000000E-002, 3.46944695E-017
186, -4.58333333E-001, 7.00000000E-002, 3.46944695E-017
187, -4.16666667E-001, 7.00000000E-002, -2.50000000E-002
188, -3.75000000E-001, 7.00000000E-002, 2.77555756E-017
189, -3.33333333E-001, 7.00000000E-002, -2.50000000E-002
190, -2.91666667E-001, 7.00000000E-002, 2.77555756E-017
191, -2.50000000E-001, 7.00000000E-002, -2.50000000E-002
192, -2.08333333E-001, 7.00000000E-002, 3.46944695E-017
193, -1.66666667E-001, 7.00000000E-002, -2.50000000E-002
194, -1.25000000E-001, 7.00000000E-002, 3.46944695E-017
195, -8.33333333E-002, 7.00000000E-002, -2.50000000E-002
196, -4.16666667E-002, 7.00000000E-002, 3.46944695E-017
197, 0.00000000E+000, 7.00000000E-002, -2.50000000E-002
198, 4.16666667E-002, 7.00000000E-002, 3.81639165E-017
199, 8.33333333E-002, 7.00000000E-002, -2.50000000E-002
200, 1.25000000E-001, 7.00000000E-002, 4.16333634E-017
201, 1.66666667E-001, 7.00000000E-002, -2.50000000E-002
202, 2.08333333E-001, 7.00000000E-002, 3.12250226E-017
203, 2.50000000E-001, 7.00000000E-002, -2.50000000E-002
204, 2.91666667E-001, 7.00000000E-002, 2.77555756E-017
205, 3.33333333E-001, 7.00000000E-002, -2.50000000E-002
206, 3.75000000E-001, 7.00000000E-002, 3.46944695E-017
207, 4.16666667E-001, 7.00000000E-002, -2.50000000E-002
208, 4.58333333E-001, 7.00000000E-002, 3.46944695E-017
209, -4.16666667E-001, 7.00000000E-002, 2.50000000E-002
210, -3.33333333E-001, 7.00000000E-002, 2.50000000E-002
211, -2.50000000E-001, 7.00000000E-002, 2.50000000E-002
212, -1.66666667E-001, 7.00000000E-002, 2.50000000E-002
213, -8.33333333E-002, 7.00000000E-002, 2.50000000E-002
214, 0.00000000E+000, 7.00000000E-002, 2.50000000E-002
215, 8.33333333E-002, 7.00000000E-002, 2.50000000E-002
216, 1.66666667E-001, 7.00000000E-002, 2.50000000E-002
217, 2.50000000E-001, 7.00000000E-002, 2.50000000E-002
218, 3.33333333E-001, 7.00000000E-002, 2.50000000E-002
219, 4.16666667E-001, 7.00000000E-002, 2.50000000E-002
220, -5.00000000E-001, 1.94289029E-016, 4.16333634E-017
221, -5.00000000E-001, 1.94289029E-016, -2.50000000E-002
222, -5.00000000E-001, 3.50000000E-002, 3.81639165E-017
223, -5.00000000E-001, -3.50000000E-002, 3.81639165E-017
224, -5.00000000E-001, 1.94289029E-016, 2.50000000E-002
225, -4.16666667E-001, 1.59594560E-016, -5.00000000E-002
226, -3.33333333E-001, 1.31838984E-016, -5.00000000E-002
227, -2.50000000E-001, 9.71445147E-017, -5.00000000E-002
228, -1.66666667E-001, 6.24500451E-017, -5.00000000E-002
229, -8.33333333E-002, 3.46944695E-017, -5.00000000E-002
230, 0.00000000E+000, 0.00000000E+000, -5.00000000E-002
231, 8.33333333E-002, -3.46944695E-017, -5.00000000E-002
232, 1.66666667E-001, -6.24500451E-017, -5.00000000E-002
233, 2.50000000E-001, -9.71445147E-017, -5.00000000E-002
234, 3.33333333E-001, -1.31838984E-016, -5.00000000E-002
235, 4.16666667E-001, -1.56125113E-016, -5.00000000E-002
236, -4.58333333E-001, 1.76941795E-016, -5.00000000E-002
237, -4.16666667E-001, -3.50000000E-002, -5.00000000E-002
238, -4.16666667E-001, 3.50000000E-002, -5.00000000E-002
239, -3.75000000E-001, 1.45716772E-016, -5.00000000E-002
240, -3.33333333E-001, -3.50000000E-002, -5.00000000E-002
241, -3.33333333E-001, 3.50000000E-002, -5.00000000E-002
242, -2.91666667E-001, 1.14491749E-016, -5.00000000E-002
243, -2.50000000E-001, -3.50000000E-002, -5.00000000E-002
244, -2.50000000E-001, 3.50000000E-002, -5.00000000E-002
245, -2.08333333E-001, 7.97972799E-017, -5.00000000E-002
246, -1.66666667E-001, -3.50000000E-002, -5.00000000E-002
247, -1.66666667E-001, 3.50000000E-002, -5.00000000E-002
248, -1.25000000E-001, 4.85722573E-017, -5.00000000E-002
249, -8.33333333E-002, -3.50000000E-002, -5.00000000E-002
250, -8.33333333E-002, 3.50000000E-002, -5.00000000E-002
251, -4.16666667E-002, 1.73472348E-017, -5.00000000E-002
252, 0.00000000E+000, -3.50000000E-002, -5.00000000E-002
253, 0.00000000E+000, 3.50000000E-002, -5.00000000E-002
254, 4.16666667E-002, -1.73472348E-017, -5.00000000E-002
255, 8.33333333E-002, -3.50000000E-002, -5.00000000E-002
256, 8.33333333E-002, 3.50000000E-002, -5.00000000E-002
257, 1.25000000E-001, -4.85722573E-017, -5.00000000E-002
258, 1.66666667E-001, -3.50000000E-002, -5.00000000E-002
259, 1.66666667E-001, 3.50000000E-002, -5.00000000E-002
260, 2.08333333E-001, -7.97972799E-017, -5.00000000E-002
261, 2.50000000E-001, -3.50000000E-002, -5.00000000E-002
262, 2.50000000E-001, 3.50000000E-002, -5.00000000E-002
263, 2.91666667E-001, -1.14491749E-016, -5.00000000E-002
264, 3.33333333E-001, -3.50000000E-002, -5.00000000E-002
265, 3.33333333E-001, 3.50000000E-002, -5.00000000E-002
266, 3.75000000E-001, -1.43982049E-016, -5.00000000E-002
267, 4.16666667E-001, -3.50000000E-002, -5.00000000E-002
268, 4.16666667E-001, 3.50000000E-002, -5.00000000E-002
269, 4.58333333E-001, -1.75207071E-016, -5.00000000E-002
270, -4.16666667E-001, 1.59594560E-016, 5.00000000E-002
271, -3.33333333E-001, 1.31838984E-016, 5.00000000E-002
272, -2.50000000E-001, 9.71445147E-017, 5.00000000E-002
273, -1.66666667E-001, 6.24500451E-017, 5.00000000E-002
274, -8.33333333E-002, 3.46944695E-017, 5.00000000E-002
275, 0.00000000E+000, 0.00000000E+000, 5.00000000E-002
276, 8.33333333E-002, -3.46944695E-017, 5.00000000E-002
277, 1.66666667E-001, -6.24500451E-017, 5.00000000E-002
278, 2.50000000E-001, -9.71445147E-017, 5.00000000E-002
279, 3.33333333E-001, -1.31838984E-016, 5.00000000E-002
280, 4.16666667E-001, -1.56125113E-016, 5.00000000E-002
281, -4.16666667E-001, -3.50000000E-002, 5.00000000E-002
282, -4.58333333E-001, 1.76941795E-016, 5.00000000E-002
283, -4.16666667E-001, 3.50000000E-002, 5.00000000E-002
284, -3.33333333E-001, -3.50000000E-002, 5.00000000E-002
285, -3.75000000E-001, 1.45716772E-016, 5.00000000E-002
286, -3.33333333E-001, 3.50000000E-002, 5.00000000E-002
287, -2.50000000E-001, -3.50000000E-002, 5.00000000E-002
288, -2.91666667E-001, 1.14491749E-016, 5.00000000E-002
289, -2.50000000E-001, 3.50000000E-002, 5.00000000E-002
290, -1.66666667E-001, -3.50000000E-002, 5.00000000E-002
291, -2.08333333E-001, 7.97972799E-017, 5.00000000E-002
292, -1.66666667E-001, 3.50000000E-002, 5.00000000E-002
293, -8.33333333E-002, -3.50000000E-002, 5.00000000E-002
294, -1.25000000E-001, 4.85722573E-017, 5.00000000E-002
295, -8.33333333E-002, 3.50000000E-002, 5.00000000E-002
296, 0.00000000E+000, -3.50000000E-002, 5.00000000E-002
297, -4.16666667E-002, 1.73472348E-017, 5.00000000E-002
298, 0.00000000E+000, 3.50000000E-002, 5.00000000E-002
299, 8.33333333E-002, -3.50000000E-002, 5.00000000E-002
300, 4.16666667E-002, -1.73472348E-017, 5.00000000E-002
301, 8.33333333E-002, 3.50000000E-002, 5.00000000E-002
302, 1.66666667E-001, -3.50000000E-002, 5.00000000E-002
303, 1.25000000E-001, -4.85722573E-017, 5.00000000E-002
304, 1.66666667E-001, 3.50000000E-002, 5.00000000E-002
305, 2.50000000E-001, -3.50000000E-002, 5.00000000E-002
306, 2.08333333E-001, -7.97972799E-017, 5.00000000E-002
307, 2.50000000E-001, 3.50000000E-002, 5.00000000E-002
308, 3.33333333E-001, -3.50000000E-002, 5.00000000E-002
309, 2.91666667E-001, -1.14491749E-016, 5.00000000E-002
310, 3.33333333E-001, 3.50000000E-002, 5.00000000E-002
311, 4.16666667E-001, -3.50000000E-002, 5.00000000E-002
312, 3.75000000E-001, -1.43982049E-016, 5.00000000E-002
313, 4.16666667E-001, 3.50000000E-002, 5.00000000E-002
314, 4.58333333E-001, -1.75207071E-016, 5.00000000E-002
315, -4.16666667E-001, 1.58510358E-016, 4.64038530E-017
316, -3.33333333E-001, 1.27935856E-016, 2.86229374E-017
317, -2.50000000E-001, 9.45424294E-017, 3.72965547E-017
318, -1.66666667E-001, 4.59701721E-017, 4.33680869E-017
319, -8.33333333E-002, 2.34187669E-017, 3.98986399E-017
320, 0.00000000E+000, -1.73472348E-018, 4.16333634E-017
321, 8.33333333E-002, -4.68375339E-017, 4.94396191E-017
322, 1.66666667E-001, -7.45931095E-017, 5.37764278E-017
323, 2.50000000E-001, -9.88792381E-017, 2.25514052E-017
324, 3.33333333E-001, -1.43982049E-016, 3.98986399E-017
325, 4.16666667E-001, -1.66533454E-016, 4.16333634E-017
326, -4.16666667E-001, -3.50000000E-002, 4.05491613E-017
327, -4.58333333E-001, 1.76399693E-016, 4.40186082E-017
328, -4.16666667E-001, 1.59052459E-016, -2.50000000E-002
329, -4.16666667E-001, 3.50000000E-002, 4.05491613E-017
330, -3.33333333E-001, -3.50000000E-002, 2.47198095E-017
331, -3.75000000E-001, 1.43223107E-016, 3.75133952E-017
332, -3.33333333E-001, 1.29887420E-016, -2.50000000E-002
333, -3.33333333E-001, 3.50000000E-002, 2.47198095E-017
334, -2.50000000E-001, -3.50000000E-002, 3.59955121E-017
335, -2.91666667E-001, 1.11239143E-016, 3.29597460E-017
336, -2.50000000E-001, 9.58434720E-017, -2.50000000E-002
337, -2.50000000E-001, 3.50000000E-002, 3.59955121E-017
338, -1.66666667E-001, -3.50000000E-002, 3.90312782E-017
339, -2.08333333E-001, 7.02563008E-017, 4.03323208E-017
340, -1.66666667E-001, 5.42101086E-017, -2.50000000E-002
341, -1.66666667E-001, 3.50000000E-002, 3.90312782E-017
342, -8.33333333E-002, -3.50000000E-002, 3.72965547E-017
343, -1.25000000E-001, 3.46944695E-017, 4.16333634E-017
344, -8.33333333E-002, 2.90566182E-017, -2.50000000E-002
345, -8.33333333E-002, 3.50000000E-002, 3.72965547E-017
346, 0.00000000E+000, -3.50000000E-002, 3.81639165E-017
347, -4.16666667E-002, 1.08420217E-017, 4.07660017E-017
348, 0.00000000E+000, -8.67361738E-019, -2.50000000E-002
349, 0.00000000E+000, 3.50000000E-002, 3.81639165E-017
350, 8.33333333E-002, -3.50000000E-002, 4.55364912E-017
351, 4.16666667E-002, -2.42861287E-017, 4.55364912E-017
352, 8.33333333E-002, -4.07660017E-017, -2.50000000E-002
353, 8.33333333E-002, 3.50000000E-002, 4.55364912E-017
354, 1.66666667E-001, -3.50000000E-002, 4.77048956E-017
355, 1.25000000E-001, -6.07153217E-017, 5.16080234E-017
356, 1.66666667E-001, -6.85215773E-017, -2.50000000E-002
357, 1.66666667E-001, 3.50000000E-002, 4.77048956E-017
358, 2.50000000E-001, -3.50000000E-002, 2.16840434E-017
359, 2.08333333E-001, -8.67361738E-017, 3.81639165E-017
360, 2.50000000E-001, -9.80118764E-017, -2.50000000E-002
361, 2.50000000E-001, 3.50000000E-002, 2.16840434E-017
362, 3.33333333E-001, -3.50000000E-002, 3.72965547E-017
363, 2.91666667E-001, -1.21430643E-016, 3.12250226E-017
364, 3.33333333E-001, -1.37910516E-016, -2.50000000E-002
365, 3.33333333E-001, 3.50000000E-002, 3.72965547E-017
366, 4.16666667E-001, -3.50000000E-002, 3.81639165E-017
367, 3.75000000E-001, -1.55257751E-016, 4.07660017E-017
368, 4.16666667E-001, -1.61329283E-016, -2.50000000E-002
369, 4.16666667E-001, 3.50000000E-002, 3.81639165E-017
370, 4.58333333E-001, -1.80411242E-016, 4.16333634E-017
371, -4.16666667E-001, 1.59052459E-016, 2.50000000E-002
372, -3.33333333E-001, 1.29887420E-016, 2.50000000E-002
373, -2.50000000E-001, 9.58434720E-017, 2.50000000E-002
374, -1.66666667E-001, 5.42101086E-017, 2.50000000E-002
375, -8.33333333E-002, 2.90566182E-017, 2.50000000E-002
376, 0.00000000E+000, -8.67361738E-019, 2.50000000E-002
377, 8.33333333E-002, -4.07660017E-017, 2.50000000E-002
378, 1.66666667E-001, -6.85215773E-017, 2.50000000E-002
379, 2.50000000E-001, -9.80118764E-017, 2.50000000E-002
380, 3.33333333E-001, -1.37910516E-016, 2.50000000E-002
381, 4.16666667E-001, -1.61329283E-016, 2.50000000E-002
382, -5.00000000E-001, 7.00000000E-002, -5.00000000E-002
383, -5.00000000E-001, 7.00000000E-002, 5.00000000E-002
384, 5.00000000E-001, 7.00000000E-002, 5.00000000E-002
385, 5.00000000E-001, 7.00000000E-002, -5.00000000E-002
386, 5.00000000E-001, 1.10000000E-001, 5.00000000E-002
387, 5.00000000E-001, 1.10000000E-001, -5.00000000E-002
388, -5.00000000E-001, 1.10000000E-001, 5.00000000E-002
389, -5.00000000E-001, 1.10000000E-001, -5.00000000E-002
390, -5.00000000E-001, 7.00000000E-002, 3.46944695E-017
391, -5.00000000E-001, 7.00000000E-002, -2.50000000E-002
392, -5.00000000E-001, 7.00000000E-002, 2.50000000E-002
393, -4.16666667E-001, 7.00000000E-002, 5.00000000E-002
394, -3.33333333E-001, 7.00000000E-002, 5.00000000E-002
395, -2.50000000E-001, 7.00000000E-002, 5.00000000E-002
396, -1.66666667E-001, 7.00000000E-002, 5.00000000E-002
397, -8.33333333E-002, 7.00000000E-002, 5.00000000E-002
398, 0.00000000E+000, 7.00000000E-002, 5.00000000E-002
399, 8.33333333E-002, 7.00000000E-002, 5.00000000E-002
400, 1.66666667E-001, 7.00000000E-002, 5.00000000E-002
401, 2.50000000E-001, 7.00000000E-002, 5.00000000E-002
402, 3.33333333E-001, 7.00000000E-002, 5.00000000E-002
403, 4.16666667E-001, 7.00000000E-002, 5.00000000E-002
404, -4.58333333E-001, 7.00000000E-002, 5.00000000E-002
405, -3.75000000E-001, 7.00000000E-002, 5.00000000E-002
406, -2.91666667E-001, 7.00000000E-002, 5.00000000E-002
407, -2.08333333E-001, 7.00000000E-002, 5.00000000E-002
408, -1.25000000E-001, 7.00000000E-002, 5.00000000E-002
409, -4.16666667E-002, 7.00000000E-002, 5.00000000E-002
410, 4.16666667E-002, 7.00000000E-002, 5.00000000E-002
411, 1.25000000E-001, 7.00000000E-002, 5.00000000E-002
412, 2.08333333E-001, 7.00000000E-002, 5.00000000E-002
413, 2.91666667E-001, 7.00000000E-002, 5.00000000E-002
414, 3.75000000E-001, 7.00000000E-002, 5.00000000E-002
415, 4.58333333E-001, 7.00000000E-002, 5.00000000E-002
416, 5.00000000E-001, 7.00000000E-002, 3.46944695E-017
417, 5.00000000E-001, 7.00000000E-002, -2.50000000E-002
418, 5.00000000E-001, 7.00000000E-002, 2.50000000E-002
419, -4.16666667E-001, 7.00000000E-002, -5.00000000E-002
420, -3.33333333E-001, 7.00000000E-002, -5.00000000E-002
421, -2.50000000E-001, 7.00000000E-002, -5.00000000E-002
422, -1.66666667E-001, 7.00000000E-002, -5.00000000E-002
423, -8.33333333E-002, 7.00000000E-002, -5.00000000E-002
424, 0.00000000E+000, 7.00000000E-002, -5.00000000E-002
425, 8.33333333E-002, 7.00000000E-002, -5.00000000E-002
426, 1.66666667E-001, 7.00000000E-002, -5.00000000E-002
427, 2.50000000E-001, 7.00000000E-002, -5.00000000E-002
428, 3.33333333E-001, 7.00000000E-002, -5.00000000E-002
429, 4.16666667E-001, 7.00000000E-002, -5.00000000E-002
430, -4.58333333E-001, 7.00000000E-002, -5.00000000E-002
431, -3.75000000E-001, 7.00000000E-002, -5.00000000E-002
432, -2.91666667E-001, 7.00000000E-002, -5.00000000E-002
433, -2.08333333E-001, 7.00000000E-002, -5.00000000E-002
434, -1.25000000E-001, 7.00000000E-002, -5.00000000E-002
435, -4.16666667E-002, 7.00000000E-002, -5.00000000E-002
436, 4.16666667E-002, 7.00000000E-002, -5.00000000E-002
437, 1.25000000E-001, 7.00000000E-002, -5.00000000E-002
438, 2.08333333E-001, 7.00000000E-002, -5.00000000E-002
439, 2.91666667E-001, 7.00000000E-002, -5.00000000E-002
440, 3.75000000E-001, 7.00000000E-002, -5.00000000E-002
441, 4.58333333E-001, 7.00000000E-002, -5.00000000E-002
442, 5.00000000E-001, 9.00000000E-002, 5.00000000E-002
443, 5.00000000E-001, 1.10000000E-001, 3.46944695E-017
444, 5.00000000E-001, 1.10000000E-001, -2.50000000E-002
445, 5.00000000E-001, 1.10000000E-001, 2.50000000E-002
446, 5.00000000E-001, 9.00000000E-002, -5.00000000E-002
447, 4.16666667E-001, 1.10000000E-001, 5.00000000E-002
448, 3.33333333E-001, 1.10000000E-001, 5.00000000E-002
449, 2.50000000E-001, 1.10000000E-001, 5.00000000E-002
450, 1.66666667E-001, 1.10000000E-001, 5.00000000E-002
451, 8.33333333E-002, 1.10000000E-001, 5.00000000E-002
452, 0.00000000E+000, 1.10000000E-001, 5.00000000E-002
453, -8.33333333E-002, 1.10000000E-001, 5.00000000E-002
454, -1.66666667E-001, 1.10000000E-001, 5.00000000E-002
455, -2.50000000E-001, 1.10000000E-001, 5.00000000E-002
456, -3.33333333E-001, 1.10000000E-001, 5.00000000E-002
457, -4.16666667E-001, 1.10000000E-001, 5.00000000E-002
458, 4.58333333E-001, 1.10000000E-001, 5.00000000E-002
459, 3.75000000E-001, 1.10000000E-001, 5.00000000E-002
460, 2.91666667E-001, 1.10000000E-001, 5.00000000E-002
461, 2.08333333E-001, 1.10000000E-001, 5.00000000E-002
462, 1.25000000E-001, 1.10000000E-001, 5.00000000E-002
463, 4.16666667E-002, 1.10000000E-001, 5.00000000E-002
464, -4.16666667E-002, 1.10000000E-001, 5.00000000E-002
465, -1.25000000E-001, 1.10000000E-001, 5.00000000E-002
466, -2.08333333E-001, 1.10000000E-001, 5.00000000E-002
467, -2.91666667E-001, 1.10000000E-001, 5.00000000E-002
468, -3.75000000E-001, 1.10000000E-001, 5.00000000E-002
469, -4.58333333E-001, 1.10000000E-001, 5.00000000E-002
470, -5.00000000E-001, 1.10000000E-001, 3.46944695E-017
471, -5.00000000E-001, 1.10000000E-001, -2.50000000E-002
472, -5.00000000E-001, 1.10000000E-001, 2.50000000E-002
473, 4.16666667E-001, 1.10000000E-001, -5.00000000E-002
474, 3.33333333E-001, 1.10000000E-001, -5.00000000E-002
475, 2.50000000E-001, 1.10000000E-001, -5.00000000E-002
476, 1.66666667E-001, 1.10000000E-001, -5.00000000E-002
477, 8.33333333E-002, 1.10000000E-001, -5.00000000E-002
478, 0.00000000E+000, 1.10000000E-001, -5.00000000E-002
479, -8.33333333E-002, 1.10000000E-001, -5.00000000E-002
480, -1.66666667E-001, 1.10000000E-001, -5.00000000E-002
481, -2.50000000E-001, 1.10000000E-001, -5.00000000E-002
482, -3.33333333E-001, 1.10000000E-001, -5.00000000E-002
483, -4.16666667E-001, 1.10000000E-001, -5.00000000E-002
484, 4.58333333E-001, 1.10000000E-001, -5.00000000E-002
485, 3.75000000E-001, 1.10000000E-001, -5.00000000E-002
486, 2.91666667E-001, 1.10000000E-001, -5.00000000E-002
487, 2.08333333E-001, 1.10000000E-001, -5.00000000E-002
488, 1.25000000E-001, 1.10000000E-001, -5.00000000E-002
489, 4.16666667E-002, 1.10000000E-001, -5.00000000E-002
490, -4.16666667E-002, 1.10000000E-001, -5.00000000E-002
491, -1.25000000E-001, 1.10000000E-001, -5.00000000E-002
492, -2.08333333E-001, 1.10000000E-001, -5.00000000E-002
493, -2.91666667E-001, 1.10000000E-001, -5.00000000E-002
494, -3.75000000E-001, 1.10000000E-001, -5.00000000E-002
495, -4.58333333E-001, 1.10000000E-001, -5.00000000E-002
496, -5.00000000E-001, 9.00000000E-002, 5.00000000E-002
497, -5.00000000E-001, 9.00000000E-002, -5.00000000E-002
498, -4.16666667E-001, 7.00000000E-002, 3.46944695E-017
499, -3.33333333E-001, 7.00000000E-002, 2.08166817E-017
500, -2.50000000E-001, 7.00000000E-002, 3.46944695E-017
501, -1.66666667E-001, 7.00000000E-002, 3.46944695E-017
502, -8.33333333E-002, 7.00000000E-002, 3.46944695E-017
503, 0.00000000E+000, 7.00000000E-002, 3.46944695E-017
504, 8.33333333E-002, 7.00000000E-002, 4.16333634E-017
505, 1.66666667E-001, 7.00000000E-002, 4.16333634E-017
506, 2.50000000E-001, 7.00000000E-002, 2.08166817E-017
507, 3.33333333E-001, 7.00000000E-002, 3.46944695E-017
508, 4.16666667E-001, 7.00000000E-002, 3.46944695E-017
509, -4.16666667E-001, 7.00000000E-002, -2.50000000E-002
510, -4.58333333E-001, 7.00000000E-002, 3.46944695E-017
511, -3.33333333E-001, 7.00000000E-002, -2.50000000E-002
512, -3.75000000E-001, 7.00000000E-002, 2.77555756E-017
513, -2.50000000E-001, 7.00000000E-002, -2.50000000E-002
514, -2.91666667E-001, 7.00000000E-002, 2.77555756E-017
515, -1.66666667E-001, 7.00000000E-002, -2.50000000E-002
516, -2.08333333E-001, 7.00000000E-002, 3.46944695E-017
517, -8.33333333E-002, 7.00000000E-002, -2.50000000E-002
518, -1.25000000E-001, 7.00000000E-002, 3.46944695E-017
519, 0.00000000E+000, 7.00000000E-002, -2.50000000E-002
520, -4.16666667E-002, 7.00000000E-002, 3.46944695E-017
521, 8.33333333E-002, 7.00000000E-002, -2.50000000E-002
522, 4.16666667E-002, 7.00000000E-002, 3.81639165E-017
523, 1.66666667E-001, 7.00000000E-002, -2.50000000E-002
524, 1.25000000E-001, 7.00000000E-002, 4.16333634E-017
525, 2.50000000E-001, 7.00000000E-002, -2.50000000E-002
526, 2.08333333E-001, 7.00000000E-002, 3.12250226E-017
527, 3.33333333E-001, 7.00000000E-002, -2.50000000E-002
528, 2.91666667E-001, 7.00000000E-002, 2.77555756E-017
529, 4.16666667E-001, 7.00000000E-002, -2.50000000E-002
530, 3.75000000E-001, 7.00000000E-002, 3.46944695E-017
531, 4.58333333E-001, 7.00000000E-002, 3.46944695E-017
532, -4.16666667E-001, 7.00000000E-002, 2.50000000E-002
533, -3.33333333E-001, 7.00000000E-002, 2.50000000E-002
534, -2.50000000E-001, 7.00000000E-002, 2.50000000E-002
535, -1.66666667E-001, 7.00000000E-002, 2.50000000E-002
536, -8.33333333E-002, 7.00000000E-002, 2.50000000E-002
537, 0.00000000E+000, 7.00000000E-002, 2.50000000E-002
538, 8.33333333E-002, 7.00000000E-002, 2.50000000E-002
539, 1.66666667E-001, 7.00000000E-002, 2.50000000E-002
540, 2.50000000E-001, 7.00000000E-002, 2.50000000E-002
541, 3.33333333E-001, 7.00000000E-002, 2.50000000E-002
542, 4.16666667E-001, 7.00000000E-002, 2.50000000E-002
543, 5.00000000E-001, 9.00000000E-002, 3.46944695E-017
544, 4.16666667E-001, 1.10000000E-001, 3.46944695E-017
545, 3.33333333E-001, 1.10000000E-001, 2.08166817E-017
546, 2.50000000E-001, 1.10000000E-001, 3.46944695E-017
547, 1.66666667E-001, 1.10000000E-001, 3.46944695E-017
548, 8.33333333E-002, 1.10000000E-001, 3.46944695E-017
549, 0.00000000E+000, 1.10000000E-001, 3.46944695E-017
550, -8.33333333E-002, 1.10000000E-001, 4.16333634E-017
551, -1.66666667E-001, 1.10000000E-001, 4.16333634E-017
552, -2.50000000E-001, 1.10000000E-001, 2.08166817E-017
553, -3.33333333E-001, 1.10000000E-001, 3.46944695E-017
554, -4.16666667E-001, 1.10000000E-001, 3.46944695E-017
555, 4.16666667E-001, 1.10000000E-001, -2.50000000E-002
556, 4.58333333E-001, 1.10000000E-001, 3.46944695E-017
557, 3.33333333E-001, 1.10000000E-001, -2.50000000E-002
558, 3.75000000E-001, 1.10000000E-001, 2.77555756E-017
559, 2.50000000E-001, 1.10000000E-001, -2.50000000E-002
560, 2.91666667E-001, 1.10000000E-001, 2.77555756E-017
561, 1.66666667E-001, 1.10000000E-001, -2.50000000E-002
562, 2.08333333E-001, 1.10000000E-001, 3.46944695E-017
563, 8.33333333E-002, 1.10000000E-001, -2.50000000E-002
564, 1.25000000E-001, 1.10000000E-001, 3.46944695E-017
565, 0.00000000E+000, 1.10000000E-001, -2.50000000E-002
566, 4.16666667E-002, 1.10000000E-001, 3.46944695E-017
567, -8.33333333E-002, 1.10000000E-001, -2.50000000E-002
568, -4.16666667E-002, 1.10000000E-001, 3.81639165E-017
569, -1.66666667E-001, 1.10000000E-001, -2.50000000E-002
570, -1.25000000E-001, 1.10000000E-001, 4.16333634E-017
571, -2.50000000E-001, 1.10000000E-001, -2.50000000E-002
572, -2.08333333E-001, 1.10000000E-001, 3.12250226E-017
573, -3.33333333E-001, 1.10000000E-001, -2.50000000E-002
574, -2.91666667E-001, 1.10000000E-001, 2.77555756E-017
575, -4.16666667E-001, 1.10000000E-001, -2.50000000E-002
576, -3.75000000E-001, 1.10000000E-001, 3.46944695E-017
577, -4.58333333E-001, 1.10000000E-001, 3.46944695E-017
578, 4.16666667E-001, 1.10000000E-001, 2.50000000E-002
579, 3.33333333E-001, 1.10000000E-001, 2.50000000E-002
580, 2.50000000E-001, 1.10000000E-001, 2.50000000E-002
581, 1.66666667E-001, 1.10000000E-001, 2.50000000E-002
582, 8.33333333E-002, 1.10000000E-001, 2.50000000E-002
583, 0.00000000E+000, 1.10000000E-001, 2.50000000E-002
584, -8.33333333E-002, 1.10000000E-001, 2.50000000E-002
585, -1.66666667E-001, 1.10000000E-001, 2.50000000E-002
586, -2.50000000E-001, 1.10000000E-001, 2.50000000E-002
587, -3.33333333E-001, 1.10000000E-001, 2.50000000E-002
588, -4.16666667E-001, 1.10000000E-001, 2.50000000E-002
589, -5.00000000E-001, 9.00000000E-002, 3.46944695E-017
590, -4.16666667E-001, 9.00000000E-002, -5.00000000E-002
591, -3.33333333E-001, 9.00000000E-002, -5.00000000E-002
592, -2.50000000E-001, 9.00000000E-002, -5.00000000E-002
593, -1.66666667E-001, 9.00000000E-002, -5.00000000E-002
594, -8.33333333E-002, 9.00000000E-002, -5.00000000E-002
595, 0.00000000E+000, 9.00000000E-002, -5.00000000E-002
596, 8.33333333E-002, 9.00000000E-002, -5.00000000E-002
597, 1.66666667E-001, 9.00000000E-002, -5.00000000E-002
598, 2.50000000E-001, 9.00000000E-002, -5.00000000E-002
599, 3.33333333E-001, 9.00000000E-002, -5.00000000E-002
600, 4.16666667E-001, 9.00000000E-002, -5.00000000E-002
601, -4.16666667E-001, 9.00000000E-002, 5.00000000E-002
602, -3.33333333E-001, 9.00000000E-002, 5.00000000E-002
603, -2.50000000E-001, 9.00000000E-002, 5.00000000E-002
604, -1.66666667E-001, 9.00000000E-002, 5.00000000E-002
605, -8.33333333E-002, 9.00000000E-002, 5.00000000E-002
606, 0.00000000E+000, 9.00000000E-002, 5.00000000E-002
607, 8.33333333E-002, 9.00000000E-002, 5.00000000E-002
608, 1.66666667E-001, 9.00000000E-002, 5.00000000E-002
609, 2.50000000E-001, 9.00000000E-002, 5.00000000E-002
610, 3.33333333E-001, 9.00000000E-002, 5.00000000E-002
611, 4.16666667E-001, 9.00000000E-002, 5.00000000E-002
612, -4.16666667E-001, 9.00000000E-002, 3.46944695E-017
613, -3.33333333E-001, 9.00000000E-002, 2.77555756E-017
614, -2.50000000E-001, 9.00000000E-002, 2.77555756E-017
615, -1.66666667E-001, 9.00000000E-002, 3.81639165E-017
616, -8.33333333E-002, 9.00000000E-002, 3.81639165E-017
617, 0.00000000E+000, 9.00000000E-002, 3.46944695E-017
618, 8.33333333E-002, 9.00000000E-002, 3.81639165E-017
619, 1.66666667E-001, 9.00000000E-002, 3.81639165E-017
620, 2.50000000E-001, 9.00000000E-002, 2.77555756E-017
621, 3.33333333E-001, 9.00000000E-002, 2.77555756E-017
622, 4.16666667E-001, 9.00000000E-002, 3.46944695E-017
**
** Elements ++++++++++++++++++++++++++++++++++++++++++++++++
**
*Element, Type=C3D20, Elset=Solid_part-2
1, 1, 9, 125, 38, 122, 220, 315, 225, 10, 137, 136, 49, 221, 327, 328,
236, 124, 223, 326, 237
2, 122, 220, 315, 225, 7, 70, 175, 96, 221, 327, 328, 236, 71, 186, 187,
107, 123, 222, 329, 238
3, 38, 125, 126, 39, 225, 315, 316, 226, 136, 139, 138, 50, 328, 331, 332,
239, 237, 326, 330, 240
4, 225, 315, 316, 226, 96, 175, 176, 97, 328, 331, 332, 239, 187, 188, 189,
108, 238, 329, 333, 241
5, 39, 126, 127, 40, 226, 316, 317, 227, 138, 141, 140, 51, 332, 335, 336,
242, 240, 330, 334, 243
6, 226, 316, 317, 227, 97, 176, 177, 98, 332, 335, 336, 242, 189, 190, 191,
109, 241, 333, 337, 244
7, 40, 127, 128, 41, 227, 317, 318, 228, 140, 143, 142, 52, 336, 339, 340,
245, 243, 334, 338, 246
8, 227, 317, 318, 228, 98, 177, 178, 99, 336, 339, 340, 245, 191, 192, 193,
110, 244, 337, 341, 247
9, 41, 128, 129, 42, 228, 318, 319, 229, 142, 145, 144, 53, 340, 343, 344,
248, 246, 338, 342, 249
10, 228, 318, 319, 229, 99, 178, 179, 100, 340, 343, 344, 248, 193, 194, 195,
111, 247, 341, 345, 250
11, 42, 129, 130, 43, 229, 319, 320, 230, 144, 147, 146, 54, 344, 347, 348,
251, 249, 342, 346, 252
12, 229, 319, 320, 230, 100, 179, 180, 101, 344, 347, 348, 251, 195, 196, 197,
112, 250, 345, 349, 253
13, 43, 130, 131, 44, 230, 320, 321, 231, 146, 149, 148, 55, 348, 351, 352,
254, 252, 346, 350, 255
14, 230, 320, 321, 231, 101, 180, 181, 102, 348, 351, 352, 254, 197, 198, 199,
113, 253, 349, 353, 256
15, 44, 131, 132, 45, 231, 321, 322, 232, 148, 151, 150, 56, 352, 355, 356,
257, 255, 350, 354, 258
16, 231, 321, 322, 232, 102, 181, 182, 103, 352, 355, 356, 257, 199, 200, 201,
114, 256, 353, 357, 259
17, 45, 132, 133, 46, 232, 322, 323, 233, 150, 153, 152, 57, 356, 359, 360,
260, 258, 354, 358, 261
18, 232, 322, 323, 233, 103, 182, 183, 104, 356, 359, 360, 260, 201, 202, 203,
115, 259, 357, 361, 262
19, 46, 133, 134, 47, 233, 323, 324, 234, 152, 155, 154, 58, 360, 363, 364,
263, 261, 358, 362, 264
20, 233, 323, 324, 234, 104, 183, 184, 105, 360, 363, 364, 263, 203, 204, 205,
116, 262, 361, 365, 265
21, 47, 134, 135, 48, 234, 324, 325, 235, 154, 157, 156, 59, 364, 367, 368,
266, 264, 362, 366, 267
22, 234, 324, 325, 235, 105, 184, 185, 106, 364, 367, 368, 266, 205, 206, 207,
117, 265, 365, 369, 268
23, 48, 135, 35, 4, 235, 325, 170, 67, 156, 158, 36, 60, 368, 370, 171,
269, 267, 366, 172, 68
24, 235, 325, 170, 67, 106, 185, 64, 6, 368, 370, 171, 269, 207, 208, 65,
118, 268, 369, 173, 69
25, 9, 2, 12, 125, 220, 119, 270, 315, 11, 23, 159, 137, 224, 282, 371,
327, 223, 121, 281, 326
26, 220, 119, 270, 315, 70, 8, 73, 175, 224, 282, 371, 327, 72, 84, 209,
186, 222, 120, 283, 329
27, 125, 12, 13, 126, 315, 270, 271, 316, 159, 24, 160, 139, 371, 285, 372,
331, 326, 281, 284, 330
28, 315, 270, 271, 316, 175, 73, 74, 176, 371, 285, 372, 331, 209, 85, 210,
188, 329, 283, 286, 333
29, 126, 13, 14, 127, 316, 271, 272, 317, 160, 25, 161, 141, 372, 288, 373,
335, 330, 284, 287, 334
30, 316, 271, 272, 317, 176, 74, 75, 177, 372, 288, 373, 335, 210, 86, 211,
190, 333, 286, 289, 337
31, 127, 14, 15, 128, 317, 272, 273, 318, 161, 26, 162, 143, 373, 291, 374,
339, 334, 287, 290, 338
32, 317, 272, 273, 318, 177, 75, 76, 178, 373, 291, 374, 339, 211, 87, 212,
192, 337, 289, 292, 341
33, 128, 15, 16, 129, 318, 273, 274, 319, 162, 27, 163, 145, 374, 294, 375,
343, 338, 290, 293, 342
34, 318, 273, 274, 319, 178, 76, 77, 179, 374, 294, 375, 343, 212, 88, 213,
194, 341, 292, 295, 345
35, 129, 16, 17, 130, 319, 274, 275, 320, 163, 28, 164, 147, 375, 297, 376,
347, 342, 293, 296, 346
36, 319, 274, 275, 320, 179, 77, 78, 180, 375, 297, 376, 347, 213, 89, 214,
196, 345, 295, 298, 349
37, 130, 17, 18, 131, 320, 275, 276, 321, 164, 29, 165, 149, 376, 300, 377,
351, 346, 296, 299, 350
38, 320, 275, 276, 321, 180, 78, 79, 181, 376, 300, 377, 351, 214, 90, 215,
198, 349, 298, 301, 353
39, 131, 18, 19, 132, 321, 276, 277, 322, 165, 30, 166, 151, 377, 303, 378,
355, 350, 299, 302, 354
40, 321, 276, 277, 322, 181, 79, 80, 182, 377, 303, 378, 355, 215, 91, 216,
200, 353, 301, 304, 357
41, 132, 19, 20, 133, 322, 277, 278, 323, 166, 31, 167, 153, 378, 306, 379,
359, 354, 302, 305, 358
42, 322, 277, 278, 323, 182, 80, 81, 183, 378, 306, 379, 359, 216, 92, 217,
202, 357, 304, 307, 361
43, 133, 20, 21, 134, 323, 278, 279, 324, 167, 32, 168, 155, 379, 309, 380,
363, 358, 305, 308, 362
44, 323, 278, 279, 324, 183, 81, 82, 184, 379, 309, 380, 363, 217, 93, 218,
204, 361, 307, 310, 365
45, 134, 21, 22, 135, 324, 279, 280, 325, 168, 33, 169, 157, 380, 312, 381,
367, 362, 308, 311, 366
46, 324, 279, 280, 325, 184, 82, 83, 185, 380, 312, 381, 367, 218, 94, 219,
206, 365, 310, 313, 369
47, 135, 22, 3, 35, 325, 280, 61, 170, 169, 34, 37, 158, 381, 314, 174,
370, 366, 311, 62, 172
48, 325, 280, 61, 170, 185, 83, 5, 64, 381, 314, 174, 370, 219, 95, 66,
208, 369, 313, 63, 173
*Element, Type=C3D20, Elset=Solid_part-1
49, 382, 390, 498, 419, 389, 470, 554, 483, 391, 510, 509, 430, 471, 577, 575,
495, 497, 589, 612, 590
50, 419, 498, 499, 420, 483, 554, 553, 482, 509, 512, 511, 431, 575, 576, 573,
494, 590, 612, 613, 591
51, 420, 499, 500, 421, 482, 553, 552, 481, 511, 514, 513, 432, 573, 574, 571,
493, 591, 613, 614, 592
52, 421, 500, 501, 422, 481, 552, 551, 480, 513, 516, 515, 433, 571, 572, 569,
492, 592, 614, 615, 593
53, 422, 501, 502, 423, 480, 551, 550, 479, 515, 518, 517, 434, 569, 570, 567,
491, 593, 615, 616, 594
54, 423, 502, 503, 424, 479, 550, 549, 478, 517, 520, 519, 435, 567, 568, 565,
490, 594, 616, 617, 595
55, 424, 503, 504, 425, 478, 549, 548, 477, 519, 522, 521, 436, 565, 566, 563,
489, 595, 617, 618, 596
56, 425, 504, 505, 426, 477, 548, 547, 476, 521, 524, 523, 437, 563, 564, 561,
488, 596, 618, 619, 597
57, 426, 505, 506, 427, 476, 547, 546, 475, 523, 526, 525, 438, 561, 562, 559,
487, 597, 619, 620, 598
58, 427, 506, 507, 428, 475, 546, 545, 474, 525, 528, 527, 439, 559, 560, 557,
486, 598, 620, 621, 599
59, 428, 507, 508, 429, 474, 545, 544, 473, 527, 530, 529, 440, 557, 558, 555,
485, 599, 621, 622, 600
60, 429, 508, 416, 385, 473, 544, 443, 387, 529, 531, 417, 441, 555, 556, 444,
484, 600, 622, 543, 446
61, 390, 383, 393, 498, 470, 388, 457, 554, 392, 404, 532, 510, 472, 469, 588,
577, 589, 496, 601, 612
62, 498, 393, 394, 499, 554, 457, 456, 553, 532, 405, 533, 512, 588, 468, 587,
576, 612, 601, 602, 613
63, 499, 394, 395, 500, 553, 456, 455, 552, 533, 406, 534, 514, 587, 467, 586,
574, 613, 602, 603, 614
64, 500, 395, 396, 501, 552, 455, 454, 551, 534, 407, 535, 516, 586, 466, 585,
572, 614, 603, 604, 615
65, 501, 396, 397, 502, 551, 454, 453, 550, 535, 408, 536, 518, 585, 465, 584,
570, 615, 604, 605, 616
66, 502, 397, 398, 503, 550, 453, 452, 549, 536, 409, 537, 520, 584, 464, 583,
568, 616, 605, 606, 617
67, 503, 398, 399, 504, 549, 452, 451, 548, 537, 410, 538, 522, 583, 463, 582,
566, 617, 606, 607, 618
68, 504, 399, 400, 505, 548, 451, 450, 547, 538, 411, 539, 524, 582, 462, 581,
564, 618, 607, 608, 619
69, 505, 400, 401, 506, 547, 450, 449, 546, 539, 412, 540, 526, 581, 461, 580,
562, 619, 608, 609, 620
70, 506, 401, 402, 507, 546, 449, 448, 545, 540, 413, 541, 528, 580, 460, 579,
560, 620, 609, 610, 621
71, 507, 402, 403, 508, 545, 448, 447, 544, 541, 414, 542, 530, 579, 459, 578,
558, 621, 610, 611, 622
72, 508, 403, 384, 416, 544, 447, 386, 443, 542, 415, 418, 531, 578, 458, 445,
556, 622, 611, 442, 543
**
** Node sets +++++++++++++++++++++++++++++++++++++++++++++++
**
*Nset, Nset=Internal-1_Internal_Selection-1_Solid_part-1_to_Solid_part-2_Master
382, 383, 384, 385, 390, 391, 392, 393, 394, 395, 396, 397, 398, 399, 400, 401, 
402, 403, 404, 405, 406, 407, 408, 409, 410, 411, 412, 413, 414, 415, 416, 417, 
418, 419, 420, 421, 422, 423, 424, 425, 426, 427, 428, 429, 430, 431, 432, 433, 
434, 435, 436, 437, 438, 439, 440, 441, 498, 499, 500, 501, 502, 503, 504, 505, 
506, 507, 508, 509, 510, 511, 512, 513, 514, 515, 516, 517, 518, 519, 520, 521, 
522, 523, 524, 525, 526, 527, 528, 529, 530, 531, 532, 533, 534, 535, 536, 537, 
538, 539, 540, 541, 542
*Nset, Nset=Internal-1_Internal_Selection-1_Solid_part-1_to_Solid_part-2_Slave
5, 6, 7, 8, 64, 65, 66, 70, 71, 72, 73, 74, 75, 76, 77, 78, 
79, 80, 81, 82, 83, 84, 85, 86, 87, 88, 89, 90, 91, 92, 93, 94, 
95, 96, 97, 98, 99, 100, 101, 102, 103, 104, 105, 106, 107, 108, 109, 110, 
111, 112, 113, 114, 115, 116, 117, 118, 175, 176, 177, 178, 179, 180, 181, 182, 
183, 184, 185, 186, 187, 188, 189, 190, 191, 192, 193, 194, 195, 196, 197, 198, 
199, 200, 201, 202, 203, 204, 205, 206, 207, 208, 209, 210, 211, 212, 213, 214, 
215, 216, 217, 218, 219
*Nset, Nset=Internal_Selection-1_Fixed-1
1, 2, 7, 8, 9, 10, 11, 70, 71, 72, 119, 120, 121, 122, 123, 124, 
220, 221, 222, 223, 224, 382, 383, 388, 389, 390, 391, 392, 470, 471, 472, 496, 
497, 589
*Nset, Nset=Internal-1_Internal_Selection-1_Surface_Traction-1
3, 4, 5, 6, 35, 36, 37, 61, 62, 63, 64, 65, 66, 67, 68, 69, 
170, 171, 172, 173, 174, 384, 385, 386, 387, 416, 417, 418, 442, 443, 444, 445, 
446, 543
**
** Element sets ++++++++++++++++++++++++++++++++++++++++++++
**
*Elset, Elset=Internal-1_Internal_Selection-1_Solid_part-1_to_Solid_part-2_Master_S1
49, 50, 51, 52, 53, 54, 55, 56, 57, 58, 59, 60, 61, 62, 63, 64, 
65, 66, 67, 68, 69, 70, 71, 72
*Elset, Elset=Internal-1_Internal_Selection-1_Solid_part-1_to_Solid_part-2_Slave_S2
2, 4, 6, 8, 10, 12, 14, 16, 18, 20, 22, 24, 26, 28, 30, 32, 
34, 36, 38, 40, 42, 44, 46, 48
*Elset, Elset=Internal_Selection-1_Solid_Section-1
Solid_part-2, 
Solid_part-1
*Elset, Elset=Internal-1_Internal_Selection-1_Surface_Traction-1_S5
23, 24, 47, 48, 60, 72
**
** Surfaces ++++++++++++++++++++++++++++++++++++++++++++++++
**
*Surface, Name=Internal_Selection-1_Solid_part-1_to_Solid_part-2_Master, Type=Element
Internal-1_Internal_Selection-1_Solid_part-1_to_Solid_part-2_Master_S1, S1
*Surface, Name=Internal_Selection-1_Solid_part-1_to_Solid_part-2_Slave, Type=Element
Internal-1_Internal_Selection-1_Solid_part-1_to_Solid_part-2_Slave_S2, S2
*Surface, Name=Internal_Selection-1_Surface_Traction-1, Type=Element
Internal-1_Internal_Selection-1_Surface_Traction-1_S5, S5
**
** Physical constants ++++++++++++++++++++++++++++++++++++++
**
**
** Coordinate systems ++++++++++++++++++++++++++++++++++++++
**
**
** Materials +++++++++++++++++++++++++++++++++++++++++++++++
**
*Material, Name=S235
*Density
7800
*Elastic
210000000000, 0.28
*Expansion, Zero=20
1.1E-05
*Conductivity
14
*Specific heat
440
**
** Sections ++++++++++++++++++++++++++++++++++++++++++++++++
**
*Solid section, Elset=Internal_Selection-1_Solid_Section-1, Material=S235
**
** Pre-tension sections ++++++++++++++++++++++++++++++++++++
**
**
** Constraints +++++++++++++++++++++++++++++++++++++++++++++
**
*Tie, Name=Solid_part-1_to_Solid_part-2, Position tolerance=0.001, Adjust=No
Internal_Selection-1_Solid_part-1_to_Solid_part-2_Slave, Internal_Selection-1_Solid_part-1_to_Solid_part-2_Master
**
** Surface interactions ++++++++++++++++++++++++++++++++++++
**
**
** Contact pairs +++++++++++++++++++++++++++++++++++++++++++
**
**
** Amplitudes ++++++++++++++++++++++++++++++++++++++++++++++
**
**
** Initial conditions ++++++++++++++++++++++++++++++++++++++
**
**
** Steps +++++++++++++++++++++++++++++++++++++++++++++++++++
**
**
** Step-1 ++++++++++++++++++++++++++++++++++++++++++++++++++
**
*Step
*Static
**
** Controls ++++++++++++++++++++++++++++++++++++++++++++++++
**
**
** Output frequency ++++++++++++++++++++++++++++++++++++++++
**
**
** Boundary conditions +++++++++++++++++++++++++++++++++++++
**
*Boundary, op=New
** Name: Fixed-1
*Boundary
Internal_Selection-1_Fixed-1, 1, 6, 0
**
** Loads +++++++++++++++++++++++++++++++++++++++++++++++++++
**
*Cload, op=New
*Dload, op=New
** Name: Surface_Traction-1
*Cload
35, 2, 32.4074074074073
170, 2, 64.8148148148148
67, 2, 32.4074074074074
4, 2, 16.2037037037037
172, 2, -1.29629630E+002
171, 2, -129.62962962963
68, 2, -6.48148148E+001
36, 2, -6.48148148E+001
64, 2, 32.4074074074075
6, 2, 16.2037037037038
173, 2, -129.62962962963
65, 2, -64.814814814815
69, 2, -64.814814814815
3, 2, 16.2037037037036
61, 2, 32.4074074074074
62, 2, -6.48148148E+001
174, 2, -129.62962962963
37, 2, -6.48148148E+001
5, 2, 16.2037037037037
63, 2, -64.814814814815
66, 2, -64.814814814815
416, 2, 18.5185185185185
443, 2, 18.5185185185185
387, 2, 9.25925925925926
385, 2, 9.25925925925926
543, 2, -7.40740741E+001
444, 2, -3.70370370E+001
446, 2, -3.70370370E+001
417, 2, -3.70370370E+001
384, 2, 9.25925925925925
386, 2, 9.25925925925925
442, 2, -37.037037037037
445, 2, -37.037037037037
418, 2, -37.037037037037
**
** Defined fields ++++++++++++++++++++++++++++++++++++++++++
**
**
** History outputs +++++++++++++++++++++++++++++++++++++++++
**
**
** Field outputs +++++++++++++++++++++++++++++++++++++++++++
**
*Node file
RF, U
*El file
S, E, NOE
**
** End step ++++++++++++++++++++++++++++++++++++++++++++++++
**
*End step
