**
** Heading +++++++++++++++++++++++++++++++++++++++++++++++++
**
*Heading
Hash: bQxHmeFI, Date: 04/20/2026, Unit system: M_KG_S_C
**
** Nodes +++++++++++++++++++++++++++++++++++++++++++++++++++
**
*Node
1, -1.00000000E+000, 1.00000000E-001, -5.00000000E-002
2, -1.00000000E+000, -1.00000000E-001, -5.00000000E-002
3, 1.00000000E+000, -1.00000000E-001, -5.00000000E-002
4, 1.00000000E+000, 1.00000000E-001, -5.00000000E-002
5, 1.00000000E+000, -1.00000000E-001, 5.00000000E-002
6, 1.00000000E+000, 1.00000000E-001, 5.00000000E-002
7, -1.00000000E+000, -1.00000000E-001, 5.00000000E-002
8, -1.00000000E+000, 1.00000000E-001, 5.00000000E-002
9, -1.00000000E+000, -6.93889390E-017, -5.00000000E-002
10, -1.00000000E+000, 5.00000000E-002, -5.00000000E-002
11, -1.00000000E+000, -5.00000000E-002, -5.00000000E-002
12, -9.41176471E-001, -1.00000000E-001, -5.00000000E-002
13, -8.82352941E-001, -1.00000000E-001, -5.00000000E-002
14, -8.23529412E-001, -1.00000000E-001, -5.00000000E-002
15, -7.64705882E-001, -1.00000000E-001, -5.00000000E-002
16, -7.05882353E-001, -1.00000000E-001, -5.00000000E-002
17, -6.47058824E-001, -1.00000000E-001, -5.00000000E-002
18, -5.88235294E-001, -1.00000000E-001, -5.00000000E-002
19, -5.29411765E-001, -1.00000000E-001, -5.00000000E-002
20, -4.70588235E-001, -1.00000000E-001, -5.00000000E-002
21, -4.11764706E-001, -1.00000000E-001, -5.00000000E-002
22, -3.52941176E-001, -1.00000000E-001, -5.00000000E-002
23, -2.94117647E-001, -1.00000000E-001, -5.00000000E-002
24, -2.35294118E-001, -1.00000000E-001, -5.00000000E-002
25, -1.76470588E-001, -1.00000000E-001, -5.00000000E-002
26, -1.17647059E-001, -1.00000000E-001, -5.00000000E-002
27, -5.88235294E-002, -1.00000000E-001, -5.00000000E-002
28, 0.00000000E+000, -1.00000000E-001, -5.00000000E-002
29, 5.88235294E-002, -1.00000000E-001, -5.00000000E-002
30, 1.17647059E-001, -1.00000000E-001, -5.00000000E-002
31, 1.76470588E-001, -1.00000000E-001, -5.00000000E-002
32, 2.35294118E-001, -1.00000000E-001, -5.00000000E-002
33, 2.94117647E-001, -1.00000000E-001, -5.00000000E-002
34, 3.52941176E-001, -1.00000000E-001, -5.00000000E-002
35, 4.11764706E-001, -1.00000000E-001, -5.00000000E-002
36, 4.70588235E-001, -1.00000000E-001, -5.00000000E-002
37, 5.29411765E-001, -1.00000000E-001, -5.00000000E-002
38, 5.88235294E-001, -1.00000000E-001, -5.00000000E-002
39, 6.47058824E-001, -1.00000000E-001, -5.00000000E-002
40, 7.05882353E-001, -1.00000000E-001, -5.00000000E-002
41, 7.64705882E-001, -1.00000000E-001, -5.00000000E-002
42, 8.23529412E-001, -1.00000000E-001, -5.00000000E-002
43, 8.82352941E-001, -1.00000000E-001, -5.00000000E-002
44, 9.41176471E-001, -1.00000000E-001, -5.00000000E-002
45, -9.70588235E-001, -1.00000000E-001, -5.00000000E-002
46, -9.11764706E-001, -1.00000000E-001, -5.00000000E-002
47, -8.52941176E-001, -1.00000000E-001, -5.00000000E-002
48, -7.94117647E-001, -1.00000000E-001, -5.00000000E-002
49, -7.35294118E-001, -1.00000000E-001, -5.00000000E-002
50, -6.76470588E-001, -1.00000000E-001, -5.00000000E-002
51, -6.17647059E-001, -1.00000000E-001, -5.00000000E-002
52, -5.58823529E-001, -1.00000000E-001, -5.00000000E-002
53, -5.00000000E-001, -1.00000000E-001, -5.00000000E-002
54, -4.41176471E-001, -1.00000000E-001, -5.00000000E-002
55, -3.82352941E-001, -1.00000000E-001, -5.00000000E-002
56, -3.23529412E-001, -1.00000000E-001, -5.00000000E-002
57, -2.64705882E-001, -1.00000000E-001, -5.00000000E-002
58, -2.05882353E-001, -1.00000000E-001, -5.00000000E-002
59, -1.47058824E-001, -1.00000000E-001, -5.00000000E-002
60, -8.82352941E-002, -1.00000000E-001, -5.00000000E-002
61, -2.94117647E-002, -1.00000000E-001, -5.00000000E-002
62, 2.94117647E-002, -1.00000000E-001, -5.00000000E-002
63, 8.82352941E-002, -1.00000000E-001, -5.00000000E-002
64, 1.47058824E-001, -1.00000000E-001, -5.00000000E-002
65, 2.05882353E-001, -1.00000000E-001, -5.00000000E-002
66, 2.64705882E-001, -1.00000000E-001, -5.00000000E-002
67, 3.23529412E-001, -1.00000000E-001, -5.00000000E-002
68, 3.82352941E-001, -1.00000000E-001, -5.00000000E-002
69, 4.41176471E-001, -1.00000000E-001, -5.00000000E-002
70, 5.00000000E-001, -1.00000000E-001, -5.00000000E-002
71, 5.58823529E-001, -1.00000000E-001, -5.00000000E-002
72, 6.17647059E-001, -1.00000000E-001, -5.00000000E-002
73, 6.76470588E-001, -1.00000000E-001, -5.00000000E-002
74, 7.35294118E-001, -1.00000000E-001, -5.00000000E-002
75, 7.94117647E-001, -1.00000000E-001, -5.00000000E-002
76, 8.52941176E-001, -1.00000000E-001, -5.00000000E-002
77, 9.11764706E-001, -1.00000000E-001, -5.00000000E-002
78, 9.70588235E-001, -1.00000000E-001, -5.00000000E-002
79, 1.00000000E+000, -6.93889390E-017, -5.00000000E-002
80, 1.00000000E+000, 5.00000000E-002, -5.00000000E-002
81, 1.00000000E+000, -5.00000000E-002, -5.00000000E-002
82, -9.41176471E-001, 1.00000000E-001, -5.00000000E-002
83, -8.82352941E-001, 1.00000000E-001, -5.00000000E-002
84, -8.23529412E-001, 1.00000000E-001, -5.00000000E-002
85, -7.64705882E-001, 1.00000000E-001, -5.00000000E-002
86, -7.05882353E-001, 1.00000000E-001, -5.00000000E-002
87, -6.47058824E-001, 1.00000000E-001, -5.00000000E-002
88, -5.88235294E-001, 1.00000000E-001, -5.00000000E-002
89, -5.29411765E-001, 1.00000000E-001, -5.00000000E-002
90, -4.70588235E-001, 1.00000000E-001, -5.00000000E-002
91, -4.11764706E-001, 1.00000000E-001, -5.00000000E-002
92, -3.52941176E-001, 1.00000000E-001, -5.00000000E-002
93, -2.94117647E-001, 1.00000000E-001, -5.00000000E-002
94, -2.35294118E-001, 1.00000000E-001, -5.00000000E-002
95, -1.76470588E-001, 1.00000000E-001, -5.00000000E-002
96, -1.17647059E-001, 1.00000000E-001, -5.00000000E-002
97, -5.88235294E-002, 1.00000000E-001, -5.00000000E-002
98, 0.00000000E+000, 1.00000000E-001, -5.00000000E-002
99, 5.88235294E-002, 1.00000000E-001, -5.00000000E-002
100, 1.17647059E-001, 1.00000000E-001, -5.00000000E-002
101, 1.76470588E-001, 1.00000000E-001, -5.00000000E-002
102, 2.35294118E-001, 1.00000000E-001, -5.00000000E-002
103, 2.94117647E-001, 1.00000000E-001, -5.00000000E-002
104, 3.52941176E-001, 1.00000000E-001, -5.00000000E-002
105, 4.11764706E-001, 1.00000000E-001, -5.00000000E-002
106, 4.70588235E-001, 1.00000000E-001, -5.00000000E-002
107, 5.29411765E-001, 1.00000000E-001, -5.00000000E-002
108, 5.88235294E-001, 1.00000000E-001, -5.00000000E-002
109, 6.47058824E-001, 1.00000000E-001, -5.00000000E-002
110, 7.05882353E-001, 1.00000000E-001, -5.00000000E-002
111, 7.64705882E-001, 1.00000000E-001, -5.00000000E-002
112, 8.23529412E-001, 1.00000000E-001, -5.00000000E-002
113, 8.82352941E-001, 1.00000000E-001, -5.00000000E-002
114, 9.41176471E-001, 1.00000000E-001, -5.00000000E-002
115, -9.70588235E-001, 1.00000000E-001, -5.00000000E-002
116, -9.11764706E-001, 1.00000000E-001, -5.00000000E-002
117, -8.52941176E-001, 1.00000000E-001, -5.00000000E-002
118, -7.94117647E-001, 1.00000000E-001, -5.00000000E-002
119, -7.35294118E-001, 1.00000000E-001, -5.00000000E-002
120, -6.76470588E-001, 1.00000000E-001, -5.00000000E-002
121, -6.17647059E-001, 1.00000000E-001, -5.00000000E-002
122, -5.58823529E-001, 1.00000000E-001, -5.00000000E-002
123, -5.00000000E-001, 1.00000000E-001, -5.00000000E-002
124, -4.41176471E-001, 1.00000000E-001, -5.00000000E-002
125, -3.82352941E-001, 1.00000000E-001, -5.00000000E-002
126, -3.23529412E-001, 1.00000000E-001, -5.00000000E-002
127, -2.64705882E-001, 1.00000000E-001, -5.00000000E-002
128, -2.05882353E-001, 1.00000000E-001, -5.00000000E-002
129, -1.47058824E-001, 1.00000000E-001, -5.00000000E-002
130, -8.82352941E-002, 1.00000000E-001, -5.00000000E-002
131, -2.94117647E-002, 1.00000000E-001, -5.00000000E-002
132, 2.94117647E-002, 1.00000000E-001, -5.00000000E-002
133, 8.82352941E-002, 1.00000000E-001, -5.00000000E-002
134, 1.47058824E-001, 1.00000000E-001, -5.00000000E-002
135, 2.05882353E-001, 1.00000000E-001, -5.00000000E-002
136, 2.64705882E-001, 1.00000000E-001, -5.00000000E-002
137, 3.23529412E-001, 1.00000000E-001, -5.00000000E-002
138, 3.82352941E-001, 1.00000000E-001, -5.00000000E-002
139, 4.41176471E-001, 1.00000000E-001, -5.00000000E-002
140, 5.00000000E-001, 1.00000000E-001, -5.00000000E-002
141, 5.58823529E-001, 1.00000000E-001, -5.00000000E-002
142, 6.17647059E-001, 1.00000000E-001, -5.00000000E-002
143, 6.76470588E-001, 1.00000000E-001, -5.00000000E-002
144, 7.35294118E-001, 1.00000000E-001, -5.00000000E-002
145, 7.94117647E-001, 1.00000000E-001, -5.00000000E-002
146, 8.52941176E-001, 1.00000000E-001, -5.00000000E-002
147, 9.11764706E-001, 1.00000000E-001, -5.00000000E-002
148, 9.70588235E-001, 1.00000000E-001, -5.00000000E-002
149, 1.00000000E+000, -1.00000000E-001, 3.46944695E-017
150, 1.00000000E+000, -1.00000000E-001, -2.50000000E-002
151, 1.00000000E+000, -1.00000000E-001, 2.50000000E-002
152, 1.00000000E+000, -6.93889390E-017, 5.00000000E-002
153, 1.00000000E+000, 5.00000000E-002, 5.00000000E-002
154, 1.00000000E+000, -5.00000000E-002, 5.00000000E-002
155, 1.00000000E+000, 1.00000000E-001, 3.46944695E-017
156, 1.00000000E+000, 1.00000000E-001, -2.50000000E-002
157, 1.00000000E+000, 1.00000000E-001, 2.50000000E-002
158, 9.41176471E-001, -1.00000000E-001, 5.00000000E-002
159, 8.82352941E-001, -1.00000000E-001, 5.00000000E-002
160, 8.23529412E-001, -1.00000000E-001, 5.00000000E-002
161, 7.64705882E-001, -1.00000000E-001, 5.00000000E-002
162, 7.05882353E-001, -1.00000000E-001, 5.00000000E-002
163, 6.47058824E-001, -1.00000000E-001, 5.00000000E-002
164, 5.88235294E-001, -1.00000000E-001, 5.00000000E-002
165, 5.29411765E-001, -1.00000000E-001, 5.00000000E-002
166, 4.70588235E-001, -1.00000000E-001, 5.00000000E-002
167, 4.11764706E-001, -1.00000000E-001, 5.00000000E-002
168, 3.52941176E-001, -1.00000000E-001, 5.00000000E-002
169, 2.94117647E-001, -1.00000000E-001, 5.00000000E-002
170, 2.35294118E-001, -1.00000000E-001, 5.00000000E-002
171, 1.76470588E-001, -1.00000000E-001, 5.00000000E-002
172, 1.17647059E-001, -1.00000000E-001, 5.00000000E-002
173, 5.88235294E-002, -1.00000000E-001, 5.00000000E-002
174, 0.00000000E+000, -1.00000000E-001, 5.00000000E-002
175, -5.88235294E-002, -1.00000000E-001, 5.00000000E-002
176, -1.17647059E-001, -1.00000000E-001, 5.00000000E-002
177, -1.76470588E-001, -1.00000000E-001, 5.00000000E-002
178, -2.35294118E-001, -1.00000000E-001, 5.00000000E-002
179, -2.94117647E-001, -1.00000000E-001, 5.00000000E-002
180, -3.52941176E-001, -1.00000000E-001, 5.00000000E-002
181, -4.11764706E-001, -1.00000000E-001, 5.00000000E-002
182, -4.70588235E-001, -1.00000000E-001, 5.00000000E-002
183, -5.29411765E-001, -1.00000000E-001, 5.00000000E-002
184, -5.88235294E-001, -1.00000000E-001, 5.00000000E-002
185, -6.47058824E-001, -1.00000000E-001, 5.00000000E-002
186, -7.05882353E-001, -1.00000000E-001, 5.00000000E-002
187, -7.64705882E-001, -1.00000000E-001, 5.00000000E-002
188, -8.23529412E-001, -1.00000000E-001, 5.00000000E-002
189, -8.82352941E-001, -1.00000000E-001, 5.00000000E-002
190, -9.41176471E-001, -1.00000000E-001, 5.00000000E-002
191, 9.70588235E-001, -1.00000000E-001, 5.00000000E-002
192, 9.11764706E-001, -1.00000000E-001, 5.00000000E-002
193, 8.52941176E-001, -1.00000000E-001, 5.00000000E-002
194, 7.94117647E-001, -1.00000000E-001, 5.00000000E-002
195, 7.35294118E-001, -1.00000000E-001, 5.00000000E-002
196, 6.76470588E-001, -1.00000000E-001, 5.00000000E-002
197, 6.17647059E-001, -1.00000000E-001, 5.00000000E-002
198, 5.58823529E-001, -1.00000000E-001, 5.00000000E-002
199, 5.00000000E-001, -1.00000000E-001, 5.00000000E-002
200, 4.41176471E-001, -1.00000000E-001, 5.00000000E-002
201, 3.82352941E-001, -1.00000000E-001, 5.00000000E-002
202, 3.23529412E-001, -1.00000000E-001, 5.00000000E-002
203, 2.64705882E-001, -1.00000000E-001, 5.00000000E-002
204, 2.05882353E-001, -1.00000000E-001, 5.00000000E-002
205, 1.47058824E-001, -1.00000000E-001, 5.00000000E-002
206, 8.82352941E-002, -1.00000000E-001, 5.00000000E-002
207, 2.94117647E-002, -1.00000000E-001, 5.00000000E-002
208, -2.94117647E-002, -1.00000000E-001, 5.00000000E-002
209, -8.82352941E-002, -1.00000000E-001, 5.00000000E-002
210, -1.47058824E-001, -1.00000000E-001, 5.00000000E-002
211, -2.05882353E-001, -1.00000000E-001, 5.00000000E-002
212, -2.64705882E-001, -1.00000000E-001, 5.00000000E-002
213, -3.23529412E-001, -1.00000000E-001, 5.00000000E-002
214, -3.82352941E-001, -1.00000000E-001, 5.00000000E-002
215, -4.41176471E-001, -1.00000000E-001, 5.00000000E-002
216, -5.00000000E-001, -1.00000000E-001, 5.00000000E-002
217, -5.58823529E-001, -1.00000000E-001, 5.00000000E-002
218, -6.17647059E-001, -1.00000000E-001, 5.00000000E-002
219, -6.76470588E-001, -1.00000000E-001, 5.00000000E-002
220, -7.35294118E-001, -1.00000000E-001, 5.00000000E-002
221, -7.94117647E-001, -1.00000000E-001, 5.00000000E-002
222, -8.52941176E-001, -1.00000000E-001, 5.00000000E-002
223, -9.11764706E-001, -1.00000000E-001, 5.00000000E-002
224, -9.70588235E-001, -1.00000000E-001, 5.00000000E-002
225, -1.00000000E+000, -6.93889390E-017, 5.00000000E-002
226, -1.00000000E+000, 5.00000000E-002, 5.00000000E-002
227, -1.00000000E+000, -5.00000000E-002, 5.00000000E-002
228, 9.41176471E-001, 1.00000000E-001, 5.00000000E-002
229, 8.82352941E-001, 1.00000000E-001, 5.00000000E-002
230, 8.23529412E-001, 1.00000000E-001, 5.00000000E-002
231, 7.64705882E-001, 1.00000000E-001, 5.00000000E-002
232, 7.05882353E-001, 1.00000000E-001, 5.00000000E-002
233, 6.47058824E-001, 1.00000000E-001, 5.00000000E-002
234, 5.88235294E-001, 1.00000000E-001, 5.00000000E-002
235, 5.29411765E-001, 1.00000000E-001, 5.00000000E-002
236, 4.70588235E-001, 1.00000000E-001, 5.00000000E-002
237, 4.11764706E-001, 1.00000000E-001, 5.00000000E-002
238, 3.52941176E-001, 1.00000000E-001, 5.00000000E-002
239, 2.94117647E-001, 1.00000000E-001, 5.00000000E-002
240, 2.35294118E-001, 1.00000000E-001, 5.00000000E-002
241, 1.76470588E-001, 1.00000000E-001, 5.00000000E-002
242, 1.17647059E-001, 1.00000000E-001, 5.00000000E-002
243, 5.88235294E-002, 1.00000000E-001, 5.00000000E-002
244, 0.00000000E+000, 1.00000000E-001, 5.00000000E-002
245, -5.88235294E-002, 1.00000000E-001, 5.00000000E-002
246, -1.17647059E-001, 1.00000000E-001, 5.00000000E-002
247, -1.76470588E-001, 1.00000000E-001, 5.00000000E-002
248, -2.35294118E-001, 1.00000000E-001, 5.00000000E-002
249, -2.94117647E-001, 1.00000000E-001, 5.00000000E-002
250, -3.52941176E-001, 1.00000000E-001, 5.00000000E-002
251, -4.11764706E-001, 1.00000000E-001, 5.00000000E-002
252, -4.70588235E-001, 1.00000000E-001, 5.00000000E-002
253, -5.29411765E-001, 1.00000000E-001, 5.00000000E-002
254, -5.88235294E-001, 1.00000000E-001, 5.00000000E-002
255, -6.47058824E-001, 1.00000000E-001, 5.00000000E-002
256, -7.05882353E-001, 1.00000000E-001, 5.00000000E-002
257, -7.64705882E-001, 1.00000000E-001, 5.00000000E-002
258, -8.23529412E-001, 1.00000000E-001, 5.00000000E-002
259, -8.82352941E-001, 1.00000000E-001, 5.00000000E-002
260, -9.41176471E-001, 1.00000000E-001, 5.00000000E-002
261, 9.70588235E-001, 1.00000000E-001, 5.00000000E-002
262, 9.11764706E-001, 1.00000000E-001, 5.00000000E-002
263, 8.52941176E-001, 1.00000000E-001, 5.00000000E-002
264, 7.94117647E-001, 1.00000000E-001, 5.00000000E-002
265, 7.35294118E-001, 1.00000000E-001, 5.00000000E-002
266, 6.76470588E-001, 1.00000000E-001, 5.00000000E-002
267, 6.17647059E-001, 1.00000000E-001, 5.00000000E-002
268, 5.58823529E-001, 1.00000000E-001, 5.00000000E-002
269, 5.00000000E-001, 1.00000000E-001, 5.00000000E-002
270, 4.41176471E-001, 1.00000000E-001, 5.00000000E-002
271, 3.82352941E-001, 1.00000000E-001, 5.00000000E-002
272, 3.23529412E-001, 1.00000000E-001, 5.00000000E-002
273, 2.64705882E-001, 1.00000000E-001, 5.00000000E-002
274, 2.05882353E-001, 1.00000000E-001, 5.00000000E-002
275, 1.47058824E-001, 1.00000000E-001, 5.00000000E-002
276, 8.82352941E-002, 1.00000000E-001, 5.00000000E-002
277, 2.94117647E-002, 1.00000000E-001, 5.00000000E-002
278, -2.94117647E-002, 1.00000000E-001, 5.00000000E-002
279, -8.82352941E-002, 1.00000000E-001, 5.00000000E-002
280, -1.47058824E-001, 1.00000000E-001, 5.00000000E-002
281, -2.05882353E-001, 1.00000000E-001, 5.00000000E-002
282, -2.64705882E-001, 1.00000000E-001, 5.00000000E-002
283, -3.23529412E-001, 1.00000000E-001, 5.00000000E-002
284, -3.82352941E-001, 1.00000000E-001, 5.00000000E-002
285, -4.41176471E-001, 1.00000000E-001, 5.00000000E-002
286, -5.00000000E-001, 1.00000000E-001, 5.00000000E-002
287, -5.58823529E-001, 1.00000000E-001, 5.00000000E-002
288, -6.17647059E-001, 1.00000000E-001, 5.00000000E-002
289, -6.76470588E-001, 1.00000000E-001, 5.00000000E-002
290, -7.35294118E-001, 1.00000000E-001, 5.00000000E-002
291, -7.94117647E-001, 1.00000000E-001, 5.00000000E-002
292, -8.52941176E-001, 1.00000000E-001, 5.00000000E-002
293, -9.11764706E-001, 1.00000000E-001, 5.00000000E-002
294, -9.70588235E-001, 1.00000000E-001, 5.00000000E-002
295, -1.00000000E+000, -1.00000000E-001, -3.46944695E-017
296, -1.00000000E+000, -1.00000000E-001, 2.50000000E-002
297, -1.00000000E+000, -1.00000000E-001, -2.50000000E-002
298, -1.00000000E+000, 1.00000000E-001, -3.46944695E-017
299, -1.00000000E+000, 1.00000000E-001, 2.50000000E-002
300, -1.00000000E+000, 1.00000000E-001, -2.50000000E-002
301, -9.41176471E-001, -4.16333634E-017, -5.00000000E-002
302, -8.82352941E-001, -6.93889390E-017, -5.00000000E-002
303, -8.23529412E-001, -6.93889390E-017, -5.00000000E-002
304, -7.64705882E-001, -6.93889390E-017, -5.00000000E-002
305, -7.05882353E-001, -4.16333634E-017, -5.00000000E-002
306, -6.47058824E-001, -8.32667268E-017, -5.00000000E-002
307, -5.88235294E-001, -6.93889390E-017, -5.00000000E-002
308, -5.29411765E-001, -6.93889390E-017, -5.00000000E-002
309, -4.70588235E-001, -6.93889390E-017, -5.00000000E-002
310, -4.11764706E-001, -8.32667268E-017, -5.00000000E-002
311, -3.52941176E-001, -6.93889390E-017, -5.00000000E-002
312, -2.94117647E-001, -8.32667268E-017, -5.00000000E-002
313, -2.35294118E-001, -5.55111512E-017, -5.00000000E-002
314, -1.76470588E-001, -6.93889390E-017, -5.00000000E-002
315, -1.17647059E-001, -8.32667268E-017, -5.00000000E-002
316, -5.88235294E-002, -8.32667268E-017, -5.00000000E-002
317, 0.00000000E+000, -6.93889390E-017, -5.00000000E-002
318, 5.88235294E-002, -8.32667268E-017, -5.00000000E-002
319, 1.17647059E-001, -8.32667268E-017, -5.00000000E-002
320, 1.76470588E-001, -6.93889390E-017, -5.00000000E-002
321, 2.35294118E-001, -5.55111512E-017, -5.00000000E-002
322, 2.94117647E-001, -8.32667268E-017, -5.00000000E-002
323, 3.52941176E-001, -5.55111512E-017, -5.00000000E-002
324, 4.11764706E-001, -4.16333634E-017, -5.00000000E-002
325, 4.70588235E-001, -8.32667268E-017, -5.00000000E-002
326, 5.29411765E-001, -5.55111512E-017, -5.00000000E-002
327, 5.88235294E-001, -6.93889390E-017, -5.00000000E-002
328, 6.47058824E-001, -6.93889390E-017, -5.00000000E-002
329, 7.05882353E-001, -6.93889390E-017, -5.00000000E-002
330, 7.64705882E-001, -6.93889390E-017, -5.00000000E-002
331, 8.23529412E-001, -6.93889390E-017, -5.00000000E-002
332, 8.82352941E-001, -6.93889390E-017, -5.00000000E-002
333, 9.41176471E-001, -6.93889390E-017, -5.00000000E-002
334, -9.41176471E-001, 5.00000000E-002, -5.00000000E-002
335, -9.70588235E-001, -5.55111512E-017, -5.00000000E-002
336, -8.82352941E-001, 5.00000000E-002, -5.00000000E-002
337, -9.11764706E-001, -5.55111512E-017, -5.00000000E-002
338, -8.23529412E-001, 5.00000000E-002, -5.00000000E-002
339, -8.52941176E-001, -6.93889390E-017, -5.00000000E-002
340, -7.64705882E-001, 5.00000000E-002, -5.00000000E-002
341, -7.94117647E-001, -6.93889390E-017, -5.00000000E-002
342, -7.05882353E-001, 5.00000000E-002, -5.00000000E-002
343, -7.35294118E-001, -5.55111512E-017, -5.00000000E-002
344, -6.47058824E-001, 5.00000000E-002, -5.00000000E-002
345, -6.76470588E-001, -6.24500451E-017, -5.00000000E-002
346, -5.88235294E-001, 5.00000000E-002, -5.00000000E-002
347, -6.17647059E-001, -7.63278329E-017, -5.00000000E-002
348, -5.29411765E-001, 5.00000000E-002, -5.00000000E-002
349, -5.58823529E-001, -6.93889390E-017, -5.00000000E-002
350, -4.70588235E-001, 5.00000000E-002, -5.00000000E-002
351, -5.00000000E-001, -6.93889390E-017, -5.00000000E-002
352, -4.11764706E-001, 5.00000000E-002, -5.00000000E-002
353, -4.41176471E-001, -7.63278329E-017, -5.00000000E-002
354, -3.52941176E-001, 5.00000000E-002, -5.00000000E-002
355, -3.82352941E-001, -7.63278329E-017, -5.00000000E-002
356, -2.94117647E-001, 5.00000000E-002, -5.00000000E-002
357, -3.23529412E-001, -7.63278329E-017, -5.00000000E-002
358, -2.35294118E-001, 5.00000000E-002, -5.00000000E-002
359, -2.64705882E-001, -6.93889390E-017, -5.00000000E-002
360, -1.76470588E-001, 5.00000000E-002, -5.00000000E-002
361, -2.05882353E-001, -6.24500451E-017, -5.00000000E-002
362, -1.17647059E-001, 5.00000000E-002, -5.00000000E-002
363, -1.47058824E-001, -7.63278329E-017, -5.00000000E-002
364, -5.88235294E-002, 5.00000000E-002, -5.00000000E-002
365, -8.82352941E-002, -8.32667268E-017, -5.00000000E-002
366, 0.00000000E+000, 5.00000000E-002, -5.00000000E-002
367, -2.94117647E-002, -7.63278329E-017, -5.00000000E-002
368, 5.88235294E-002, 5.00000000E-002, -5.00000000E-002
369, 2.94117647E-002, -7.63278329E-017, -5.00000000E-002
370, 1.17647059E-001, 5.00000000E-002, -5.00000000E-002
371, 8.82352941E-002, -8.32667268E-017, -5.00000000E-002
372, 1.76470588E-001, 5.00000000E-002, -5.00000000E-002
373, 1.47058824E-001, -7.63278329E-017, -5.00000000E-002
374, 2.35294118E-001, 5.00000000E-002, -5.00000000E-002
375, 2.05882353E-001, -6.24500451E-017, -5.00000000E-002
376, 2.94117647E-001, 5.00000000E-002, -5.00000000E-002
377, 2.64705882E-001, -6.93889390E-017, -5.00000000E-002
378, 3.52941176E-001, 5.00000000E-002, -5.00000000E-002
379, 3.23529412E-001, -6.93889390E-017, -5.00000000E-002
380, 4.11764706E-001, 5.00000000E-002, -5.00000000E-002
381, 3.82352941E-001, -4.85722573E-017, -5.00000000E-002
382, 4.70588235E-001, 5.00000000E-002, -5.00000000E-002
383, 4.41176471E-001, -6.24500451E-017, -5.00000000E-002
384, 5.29411765E-001, 5.00000000E-002, -5.00000000E-002
385, 5.00000000E-001, -6.93889390E-017, -5.00000000E-002
386, 5.88235294E-001, 5.00000000E-002, -5.00000000E-002
387, 5.58823529E-001, -6.24500451E-017, -5.00000000E-002
388, 6.47058824E-001, 5.00000000E-002, -5.00000000E-002
389, 6.17647059E-001, -6.93889390E-017, -5.00000000E-002
390, 7.05882353E-001, 5.00000000E-002, -5.00000000E-002
391, 6.76470588E-001, -6.93889390E-017, -5.00000000E-002
392, 7.64705882E-001, 5.00000000E-002, -5.00000000E-002
393, 7.35294118E-001, -6.93889390E-017, -5.00000000E-002
394, 8.23529412E-001, 5.00000000E-002, -5.00000000E-002
395, 7.94117647E-001, -6.93889390E-017, -5.00000000E-002
396, 8.82352941E-001, 5.00000000E-002, -5.00000000E-002
397, 8.52941176E-001, -6.93889390E-017, -5.00000000E-002
398, 9.41176471E-001, 5.00000000E-002, -5.00000000E-002
399, 9.11764706E-001, -6.93889390E-017, -5.00000000E-002
400, 9.70588235E-001, -6.93889390E-017, -5.00000000E-002
401, -9.41176471E-001, -5.00000000E-002, -5.00000000E-002
402, -8.82352941E-001, -5.00000000E-002, -5.00000000E-002
403, -8.23529412E-001, -5.00000000E-002, -5.00000000E-002
404, -7.64705882E-001, -5.00000000E-002, -5.00000000E-002
405, -7.05882353E-001, -5.00000000E-002, -5.00000000E-002
406, -6.47058824E-001, -5.00000000E-002, -5.00000000E-002
407, -5.88235294E-001, -5.00000000E-002, -5.00000000E-002
408, -5.29411765E-001, -5.00000000E-002, -5.00000000E-002
409, -4.70588235E-001, -5.00000000E-002, -5.00000000E-002
410, -4.11764706E-001, -5.00000000E-002, -5.00000000E-002
411, -3.52941176E-001, -5.00000000E-002, -5.00000000E-002
412, -2.94117647E-001, -5.00000000E-002, -5.00000000E-002
413, -2.35294118E-001, -5.00000000E-002, -5.00000000E-002
414, -1.76470588E-001, -5.00000000E-002, -5.00000000E-002
415, -1.17647059E-001, -5.00000000E-002, -5.00000000E-002
416, -5.88235294E-002, -5.00000000E-002, -5.00000000E-002
417, 0.00000000E+000, -5.00000000E-002, -5.00000000E-002
418, 5.88235294E-002, -5.00000000E-002, -5.00000000E-002
419, 1.17647059E-001, -5.00000000E-002, -5.00000000E-002
420, 1.76470588E-001, -5.00000000E-002, -5.00000000E-002
421, 2.35294118E-001, -5.00000000E-002, -5.00000000E-002
422, 2.94117647E-001, -5.00000000E-002, -5.00000000E-002
423, 3.52941176E-001, -5.00000000E-002, -5.00000000E-002
424, 4.11764706E-001, -5.00000000E-002, -5.00000000E-002
425, 4.70588235E-001, -5.00000000E-002, -5.00000000E-002
426, 5.29411765E-001, -5.00000000E-002, -5.00000000E-002
427, 5.88235294E-001, -5.00000000E-002, -5.00000000E-002
428, 6.47058824E-001, -5.00000000E-002, -5.00000000E-002
429, 7.05882353E-001, -5.00000000E-002, -5.00000000E-002
430, 7.64705882E-001, -5.00000000E-002, -5.00000000E-002
431, 8.23529412E-001, -5.00000000E-002, -5.00000000E-002
432, 8.82352941E-001, -5.00000000E-002, -5.00000000E-002
433, 9.41176471E-001, -5.00000000E-002, -5.00000000E-002
434, 1.00000000E+000, -8.32667268E-017, 4.85722573E-017
435, 1.00000000E+000, 5.00000000E-002, 4.16333634E-017
436, 1.00000000E+000, -7.63278329E-017, -2.50000000E-002
437, 1.00000000E+000, -7.63278329E-017, 2.50000000E-002
438, 1.00000000E+000, -5.00000000E-002, 4.16333634E-017
439, 9.41176471E-001, -4.16333634E-017, 5.00000000E-002
440, 8.82352941E-001, -6.93889390E-017, 5.00000000E-002
441, 8.23529412E-001, -6.93889390E-017, 5.00000000E-002
442, 7.64705882E-001, -6.93889390E-017, 5.00000000E-002
443, 7.05882353E-001, -4.16333634E-017, 5.00000000E-002
444, 6.47058824E-001, -8.32667268E-017, 5.00000000E-002
445, 5.88235294E-001, -6.93889390E-017, 5.00000000E-002
446, 5.29411765E-001, -6.93889390E-017, 5.00000000E-002
447, 4.70588235E-001, -6.93889390E-017, 5.00000000E-002
448, 4.11764706E-001, -8.32667268E-017, 5.00000000E-002
449, 3.52941176E-001, -6.93889390E-017, 5.00000000E-002
450, 2.94117647E-001, -8.32667268E-017, 5.00000000E-002
451, 2.35294118E-001, -5.55111512E-017, 5.00000000E-002
452, 1.76470588E-001, -6.93889390E-017, 5.00000000E-002
453, 1.17647059E-001, -8.32667268E-017, 5.00000000E-002
454, 5.88235294E-002, -8.32667268E-017, 5.00000000E-002
455, 0.00000000E+000, -6.93889390E-017, 5.00000000E-002
456, -5.88235294E-002, -8.32667268E-017, 5.00000000E-002
457, -1.17647059E-001, -8.32667268E-017, 5.00000000E-002
458, -1.76470588E-001, -6.93889390E-017, 5.00000000E-002
459, -2.35294118E-001, -5.55111512E-017, 5.00000000E-002
460, -2.94117647E-001, -8.32667268E-017, 5.00000000E-002
461, -3.52941176E-001, -5.55111512E-017, 5.00000000E-002
462, -4.11764706E-001, -4.16333634E-017, 5.00000000E-002
463, -4.70588235E-001, -8.32667268E-017, 5.00000000E-002
464, -5.29411765E-001, -5.55111512E-017, 5.00000000E-002
465, -5.88235294E-001, -6.93889390E-017, 5.00000000E-002
466, -6.47058824E-001, -6.93889390E-017, 5.00000000E-002
467, -7.05882353E-001, -6.93889390E-017, 5.00000000E-002
468, -7.64705882E-001, -6.93889390E-017, 5.00000000E-002
469, -8.23529412E-001, -6.93889390E-017, 5.00000000E-002
470, -8.82352941E-001, -6.93889390E-017, 5.00000000E-002
471, -9.41176471E-001, -6.93889390E-017, 5.00000000E-002
472, 9.41176471E-001, 5.00000000E-002, 5.00000000E-002
473, 9.70588235E-001, -5.55111512E-017, 5.00000000E-002
474, 8.82352941E-001, 5.00000000E-002, 5.00000000E-002
475, 9.11764706E-001, -5.55111512E-017, 5.00000000E-002
476, 8.23529412E-001, 5.00000000E-002, 5.00000000E-002
477, 8.52941176E-001, -6.93889390E-017, 5.00000000E-002
478, 7.64705882E-001, 5.00000000E-002, 5.00000000E-002
479, 7.94117647E-001, -6.93889390E-017, 5.00000000E-002
480, 7.05882353E-001, 5.00000000E-002, 5.00000000E-002
481, 7.35294118E-001, -5.55111512E-017, 5.00000000E-002
482, 6.47058824E-001, 5.00000000E-002, 5.00000000E-002
483, 6.76470588E-001, -6.24500451E-017, 5.00000000E-002
484, 5.88235294E-001, 5.00000000E-002, 5.00000000E-002
485, 6.17647059E-001, -7.63278329E-017, 5.00000000E-002
486, 5.29411765E-001, 5.00000000E-002, 5.00000000E-002
487, 5.58823529E-001, -6.93889390E-017, 5.00000000E-002
488, 4.70588235E-001, 5.00000000E-002, 5.00000000E-002
489, 5.00000000E-001, -6.93889390E-017, 5.00000000E-002
490, 4.11764706E-001, 5.00000000E-002, 5.00000000E-002
491, 4.41176471E-001, -7.63278329E-017, 5.00000000E-002
492, 3.52941176E-001, 5.00000000E-002, 5.00000000E-002
493, 3.82352941E-001, -7.63278329E-017, 5.00000000E-002
494, 2.94117647E-001, 5.00000000E-002, 5.00000000E-002
495, 3.23529412E-001, -7.63278329E-017, 5.00000000E-002
496, 2.35294118E-001, 5.00000000E-002, 5.00000000E-002
497, 2.64705882E-001, -6.93889390E-017, 5.00000000E-002
498, 1.76470588E-001, 5.00000000E-002, 5.00000000E-002
499, 2.05882353E-001, -6.24500451E-017, 5.00000000E-002
500, 1.17647059E-001, 5.00000000E-002, 5.00000000E-002
501, 1.47058824E-001, -7.63278329E-017, 5.00000000E-002
502, 5.88235294E-002, 5.00000000E-002, 5.00000000E-002
503, 8.82352941E-002, -8.32667268E-017, 5.00000000E-002
504, 0.00000000E+000, 5.00000000E-002, 5.00000000E-002
505, 2.94117647E-002, -7.63278329E-017, 5.00000000E-002
506, -5.88235294E-002, 5.00000000E-002, 5.00000000E-002
507, -2.94117647E-002, -7.63278329E-017, 5.00000000E-002
508, -1.17647059E-001, 5.00000000E-002, 5.00000000E-002
509, -8.82352941E-002, -8.32667268E-017, 5.00000000E-002
510, -1.76470588E-001, 5.00000000E-002, 5.00000000E-002
511, -1.47058824E-001, -7.63278329E-017, 5.00000000E-002
512, -2.35294118E-001, 5.00000000E-002, 5.00000000E-002
513, -2.05882353E-001, -6.24500451E-017, 5.00000000E-002
514, -2.94117647E-001, 5.00000000E-002, 5.00000000E-002
515, -2.64705882E-001, -6.93889390E-017, 5.00000000E-002
516, -3.52941176E-001, 5.00000000E-002, 5.00000000E-002
517, -3.23529412E-001, -6.93889390E-017, 5.00000000E-002
518, -4.11764706E-001, 5.00000000E-002, 5.00000000E-002
519, -3.82352941E-001, -4.85722573E-017, 5.00000000E-002
520, -4.70588235E-001, 5.00000000E-002, 5.00000000E-002
521, -4.41176471E-001, -6.24500451E-017, 5.00000000E-002
522, -5.29411765E-001, 5.00000000E-002, 5.00000000E-002
523, -5.00000000E-001, -6.93889390E-017, 5.00000000E-002
524, -5.88235294E-001, 5.00000000E-002, 5.00000000E-002
525, -5.58823529E-001, -6.24500451E-017, 5.00000000E-002
526, -6.47058824E-001, 5.00000000E-002, 5.00000000E-002
527, -6.17647059E-001, -6.93889390E-017, 5.00000000E-002
528, -7.05882353E-001, 5.00000000E-002, 5.00000000E-002
529, -6.76470588E-001, -6.93889390E-017, 5.00000000E-002
530, -7.64705882E-001, 5.00000000E-002, 5.00000000E-002
531, -7.35294118E-001, -6.93889390E-017, 5.00000000E-002
532, -8.23529412E-001, 5.00000000E-002, 5.00000000E-002
533, -7.94117647E-001, -6.93889390E-017, 5.00000000E-002
534, -8.82352941E-001, 5.00000000E-002, 5.00000000E-002
535, -8.52941176E-001, -6.93889390E-017, 5.00000000E-002
536, -9.41176471E-001, 5.00000000E-002, 5.00000000E-002
537, -9.11764706E-001, -6.93889390E-017, 5.00000000E-002
538, -9.70588235E-001, -6.93889390E-017, 5.00000000E-002
539, 9.41176471E-001, -5.00000000E-002, 5.00000000E-002
540, 8.82352941E-001, -5.00000000E-002, 5.00000000E-002
541, 8.23529412E-001, -5.00000000E-002, 5.00000000E-002
542, 7.64705882E-001, -5.00000000E-002, 5.00000000E-002
543, 7.05882353E-001, -5.00000000E-002, 5.00000000E-002
544, 6.47058824E-001, -5.00000000E-002, 5.00000000E-002
545, 5.88235294E-001, -5.00000000E-002, 5.00000000E-002
546, 5.29411765E-001, -5.00000000E-002, 5.00000000E-002
547, 4.70588235E-001, -5.00000000E-002, 5.00000000E-002
548, 4.11764706E-001, -5.00000000E-002, 5.00000000E-002
549, 3.52941176E-001, -5.00000000E-002, 5.00000000E-002
550, 2.94117647E-001, -5.00000000E-002, 5.00000000E-002
551, 2.35294118E-001, -5.00000000E-002, 5.00000000E-002
552, 1.76470588E-001, -5.00000000E-002, 5.00000000E-002
553, 1.17647059E-001, -5.00000000E-002, 5.00000000E-002
554, 5.88235294E-002, -5.00000000E-002, 5.00000000E-002
555, 0.00000000E+000, -5.00000000E-002, 5.00000000E-002
556, -5.88235294E-002, -5.00000000E-002, 5.00000000E-002
557, -1.17647059E-001, -5.00000000E-002, 5.00000000E-002
558, -1.76470588E-001, -5.00000000E-002, 5.00000000E-002
559, -2.35294118E-001, -5.00000000E-002, 5.00000000E-002
560, -2.94117647E-001, -5.00000000E-002, 5.00000000E-002
561, -3.52941176E-001, -5.00000000E-002, 5.00000000E-002
562, -4.11764706E-001, -5.00000000E-002, 5.00000000E-002
563, -4.70588235E-001, -5.00000000E-002, 5.00000000E-002
564, -5.29411765E-001, -5.00000000E-002, 5.00000000E-002
565, -5.88235294E-001, -5.00000000E-002, 5.00000000E-002
566, -6.47058824E-001, -5.00000000E-002, 5.00000000E-002
567, -7.05882353E-001, -5.00000000E-002, 5.00000000E-002
568, -7.64705882E-001, -5.00000000E-002, 5.00000000E-002
569, -8.23529412E-001, -5.00000000E-002, 5.00000000E-002
570, -8.82352941E-001, -5.00000000E-002, 5.00000000E-002
571, -9.41176471E-001, -5.00000000E-002, 5.00000000E-002
572, -1.00000000E+000, -6.93889390E-017, -2.77555756E-017
573, -1.00000000E+000, 5.00000000E-002, -3.12250226E-017
574, -1.00000000E+000, -6.93889390E-017, 2.50000000E-002
575, -1.00000000E+000, -6.93889390E-017, -2.50000000E-002
576, -1.00000000E+000, -5.00000000E-002, -3.12250226E-017
577, -9.41176471E-001, 1.00000000E-001, -3.35209801E-017
578, -8.82352941E-001, 1.00000000E-001, -2.88780437E-017
579, -8.23529412E-001, 1.00000000E-001, -2.72708735E-017
580, -7.64705882E-001, 1.00000000E-001, -2.65310649E-017
581, -7.05882353E-001, 1.00000000E-001, -2.14544477E-017
582, -6.47058824E-001, 1.00000000E-001, -2.07146392E-017
583, -5.88235294E-001, 1.00000000E-001, -1.86737880E-017
584, -5.29411765E-001, 1.00000000E-001, -2.18371073E-017
585, -4.70588235E-001, 1.00000000E-001, -1.63268092E-017
586, -4.11764706E-001, 1.00000000E-001, -1.51533198E-017
587, -3.52941176E-001, 1.00000000E-001, -1.57145538E-017
588, -2.94117647E-001, 1.00000000E-001, -1.36737027E-017
589, -2.35294118E-001, 1.00000000E-001, -8.16340459E-018
590, -1.76470588E-001, 1.00000000E-001, -6.12255344E-018
591, -1.17647059E-001, 1.00000000E-001, -4.08170230E-018
592, -5.88235294E-002, 1.00000000E-001, -2.04085115E-018
593, 2.64338815E-017, 1.00000000E-001, -1.08468374E-030
594, 5.88235294E-002, 1.00000000E-001, 2.04085115E-018
595, 1.17647059E-001, 1.00000000E-001, 4.08170230E-018
596, 1.76470588E-001, 1.00000000E-001, 6.12255344E-018
597, 2.35294118E-001, 1.00000000E-001, 8.16340459E-018
598, 2.94117647E-001, 1.00000000E-001, 6.73480879E-018
599, 3.52941176E-001, 1.00000000E-001, 8.77565994E-018
600, 4.11764706E-001, 1.00000000E-001, 1.42859580E-017
601, 4.70588235E-001, 1.00000000E-001, 1.63268092E-017
602, 5.29411765E-001, 1.00000000E-001, 1.48982134E-017
603, 5.88235294E-001, 1.00000000E-001, 2.04085115E-017
604, 6.47058824E-001, 1.00000000E-001, 2.59188096E-017
605, 7.05882353E-001, 1.00000000E-001, 2.79596607E-017
606, 7.64705882E-001, 1.00000000E-001, 2.65310649E-017
607, 8.23529412E-001, 1.00000000E-001, 2.85719161E-017
608, 8.82352941E-001, 1.00000000E-001, 3.06127672E-017
609, 9.41176471E-001, 1.00000000E-001, 3.26536184E-017
610, -9.41176471E-001, 1.00000000E-001, 2.50000000E-002
611, -9.70588235E-001, 1.00000000E-001, -3.41077248E-017
612, -8.82352941E-001, 1.00000000E-001, 2.50000000E-002
613, -9.11764706E-001, 1.00000000E-001, -3.11995119E-017
614, -8.23529412E-001, 1.00000000E-001, 2.50000000E-002
615, -8.52941176E-001, 1.00000000E-001, -2.80744586E-017
616, -7.64705882E-001, 1.00000000E-001, 2.50000000E-002
617, -7.94117647E-001, 1.00000000E-001, -2.69009692E-017
618, -7.05882353E-001, 1.00000000E-001, 2.50000000E-002
619, -7.35294118E-001, 1.00000000E-001, -2.39927563E-017
620, -6.47058824E-001, 1.00000000E-001, 2.50000000E-002
621, -6.76470588E-001, 1.00000000E-001, -2.10845434E-017
622, -5.88235294E-001, 1.00000000E-001, 2.50000000E-002
623, -6.17647059E-001, 1.00000000E-001, -1.96942136E-017
624, -5.29411765E-001, 1.00000000E-001, 2.50000000E-002
625, -5.58823529E-001, 1.00000000E-001, -2.02554476E-017
626, -4.70588235E-001, 1.00000000E-001, 2.50000000E-002
627, -5.00000000E-001, 1.00000000E-001, -1.90819582E-017
628, -4.11764706E-001, 1.00000000E-001, 2.50000000E-002
629, -4.41176471E-001, 1.00000000E-001, -1.57400645E-017
630, -3.52941176E-001, 1.00000000E-001, 2.50000000E-002
631, -3.82352941E-001, 1.00000000E-001, -1.54339368E-017
632, -2.94117647E-001, 1.00000000E-001, 2.50000000E-002
633, -3.23529412E-001, 1.00000000E-001, -1.46941283E-017
634, -2.35294118E-001, 1.00000000E-001, 2.50000000E-002
635, -2.64705882E-001, 1.00000000E-001, -1.09185536E-017
636, -1.76470588E-001, 1.00000000E-001, 2.50000000E-002
637, -2.05882353E-001, 1.00000000E-001, -7.14297902E-018
638, -1.17647059E-001, 1.00000000E-001, 2.50000000E-002
639, -1.47058824E-001, 1.00000000E-001, -5.10212787E-018
640, -5.88235294E-002, 1.00000000E-001, 2.50000000E-002
641, -8.82352941E-002, 1.00000000E-001, -3.06127672E-018
642, 1.32169408E-017, 1.00000000E-001, 2.50000000E-002
643, -2.94117647E-002, 1.00000000E-001, -1.02042557E-018
644, 5.88235294E-002, 1.00000000E-001, 2.50000000E-002
645, 2.94117647E-002, 1.00000000E-001, 1.02042557E-018
646, 1.17647059E-001, 1.00000000E-001, 2.50000000E-002
647, 8.82352941E-002, 1.00000000E-001, 3.06127672E-018
648, 1.76470588E-001, 1.00000000E-001, 2.50000000E-002
649, 1.47058824E-001, 1.00000000E-001, 5.10212787E-018
650, 2.35294118E-001, 1.00000000E-001, 2.50000000E-002
651, 2.05882353E-001, 1.00000000E-001, 7.14297902E-018
652, 2.94117647E-001, 1.00000000E-001, 2.50000000E-002
653, 2.64705882E-001, 1.00000000E-001, 7.44910669E-018
654, 3.52941176E-001, 1.00000000E-001, 2.50000000E-002
655, 3.23529412E-001, 1.00000000E-001, 7.75523436E-018
656, 4.11764706E-001, 1.00000000E-001, 2.50000000E-002
657, 3.82352941E-001, 1.00000000E-001, 1.15308090E-017
658, 4.70588235E-001, 1.00000000E-001, 2.50000000E-002
659, 4.41176471E-001, 1.00000000E-001, 1.53063836E-017
660, 5.29411765E-001, 1.00000000E-001, 2.50000000E-002
661, 5.00000000E-001, 1.00000000E-001, 1.56125113E-017
662, 5.88235294E-001, 1.00000000E-001, 2.50000000E-002
663, 5.58823529E-001, 1.00000000E-001, 1.76533624E-017
664, 6.47058824E-001, 1.00000000E-001, 2.50000000E-002
665, 6.17647059E-001, 1.00000000E-001, 2.31636605E-017
666, 7.05882353E-001, 1.00000000E-001, 2.50000000E-002
667, 6.76470588E-001, 1.00000000E-001, 2.69392352E-017
668, 7.64705882E-001, 1.00000000E-001, 2.50000000E-002
669, 7.35294118E-001, 1.00000000E-001, 2.72453628E-017
670, 8.23529412E-001, 1.00000000E-001, 2.50000000E-002
671, 7.94117647E-001, 1.00000000E-001, 2.75514905E-017
672, 8.82352941E-001, 1.00000000E-001, 2.50000000E-002
673, 8.52941176E-001, 1.00000000E-001, 2.95923416E-017
674, 9.41176471E-001, 1.00000000E-001, 2.50000000E-002
675, 9.11764706E-001, 1.00000000E-001, 3.16331928E-017
676, 9.70588235E-001, 1.00000000E-001, 3.36740439E-017
677, -9.41176471E-001, 1.00000000E-001, -2.50000000E-002
678, -8.82352941E-001, 1.00000000E-001, -2.50000000E-002
679, -8.23529412E-001, 1.00000000E-001, -2.50000000E-002
680, -7.64705882E-001, 1.00000000E-001, -2.50000000E-002
681, -7.05882353E-001, 1.00000000E-001, -2.50000000E-002
682, -6.47058824E-001, 1.00000000E-001, -2.50000000E-002
683, -5.88235294E-001, 1.00000000E-001, -2.50000000E-002
684, -5.29411765E-001, 1.00000000E-001, -2.50000000E-002
685, -4.70588235E-001, 1.00000000E-001, -2.50000000E-002
686, -4.11764706E-001, 1.00000000E-001, -2.50000000E-002
687, -3.52941176E-001, 1.00000000E-001, -2.50000000E-002
688, -2.94117647E-001, 1.00000000E-001, -2.50000000E-002
689, -2.35294118E-001, 1.00000000E-001, -2.50000000E-002
690, -1.76470588E-001, 1.00000000E-001, -2.50000000E-002
691, -1.17647059E-001, 1.00000000E-001, -2.50000000E-002
692, -5.88235294E-002, 1.00000000E-001, -2.50000000E-002
693, 1.32169408E-017, 1.00000000E-001, -2.50000000E-002
694, 5.88235294E-002, 1.00000000E-001, -2.50000000E-002
695, 1.17647059E-001, 1.00000000E-001, -2.50000000E-002
696, 1.76470588E-001, 1.00000000E-001, -2.50000000E-002
697, 2.35294118E-001, 1.00000000E-001, -2.50000000E-002
698, 2.94117647E-001, 1.00000000E-001, -2.50000000E-002
699, 3.52941176E-001, 1.00000000E-001, -2.50000000E-002
700, 4.11764706E-001, 1.00000000E-001, -2.50000000E-002
701, 4.70588235E-001, 1.00000000E-001, -2.50000000E-002
702, 5.29411765E-001, 1.00000000E-001, -2.50000000E-002
703, 5.88235294E-001, 1.00000000E-001, -2.50000000E-002
704, 6.47058824E-001, 1.00000000E-001, -2.50000000E-002
705, 7.05882353E-001, 1.00000000E-001, -2.50000000E-002
706, 7.64705882E-001, 1.00000000E-001, -2.50000000E-002
707, 8.23529412E-001, 1.00000000E-001, -2.50000000E-002
708, 8.82352941E-001, 1.00000000E-001, -2.50000000E-002
709, 9.41176471E-001, 1.00000000E-001, -2.50000000E-002
710, -9.41176471E-001, -1.00000000E-001, -3.17862566E-017
711, -8.82352941E-001, -1.00000000E-001, -3.23474907E-017
712, -8.23529412E-001, -1.00000000E-001, -2.98729587E-017
713, -7.64705882E-001, -1.00000000E-001, -2.65310649E-017
714, -7.05882353E-001, -1.00000000E-001, -2.75259799E-017
715, -6.47058824E-001, -1.00000000E-001, -2.41840861E-017
716, -5.88235294E-001, -1.00000000E-001, -2.21432350E-017
717, -5.29411765E-001, -1.00000000E-001, -1.48982134E-017
718, -4.70588235E-001, -1.00000000E-001, -1.63268092E-017
719, -4.11764706E-001, -1.00000000E-001, -1.34185963E-017
720, -3.52941176E-001, -1.00000000E-001, -8.77565994E-018
721, -2.94117647E-001, -1.00000000E-001, -6.73480879E-018
722, -2.35294118E-001, -1.00000000E-001, -8.16340459E-018
723, -1.76470588E-001, -1.00000000E-001, -6.12255344E-018
724, -1.17647059E-001, -1.00000000E-001, -4.08170230E-018
725, -5.88235294E-002, -1.00000000E-001, -2.04085115E-018
726, 2.64338815E-017, -1.00000000E-001, 1.08468374E-030
727, 5.88235294E-002, -1.00000000E-001, 2.04085115E-018
728, 1.17647059E-001, -1.00000000E-001, 4.08170230E-018
729, 1.76470588E-001, -1.00000000E-001, 6.12255344E-018
730, 2.35294118E-001, -1.00000000E-001, 8.16340459E-018
731, 2.94117647E-001, -1.00000000E-001, 1.36737027E-017
732, 3.52941176E-001, -1.00000000E-001, 1.57145538E-017
733, 4.11764706E-001, -1.00000000E-001, 1.42859580E-017
734, 4.70588235E-001, -1.00000000E-001, 1.63268092E-017
735, 5.29411765E-001, -1.00000000E-001, 2.18371073E-017
736, 5.88235294E-001, -1.00000000E-001, 2.04085115E-017
737, 6.47058824E-001, -1.00000000E-001, 1.89799157E-017
738, 7.05882353E-001, -1.00000000E-001, 2.10207668E-017
739, 7.64705882E-001, -1.00000000E-001, 2.65310649E-017
740, 8.23529412E-001, -1.00000000E-001, 2.85719161E-017
741, 8.82352941E-001, -1.00000000E-001, 2.71433203E-017
742, 9.41176471E-001, -1.00000000E-001, 3.26536184E-017
743, -9.70588235E-001, -1.00000000E-001, -3.32403631E-017
744, -9.41176471E-001, -1.00000000E-001, 2.50000000E-002
745, -9.11764706E-001, -1.00000000E-001, -3.20668737E-017
746, -8.82352941E-001, -1.00000000E-001, 2.50000000E-002
747, -8.52941176E-001, -1.00000000E-001, -3.11102247E-017
748, -8.23529412E-001, -1.00000000E-001, 2.50000000E-002
749, -7.94117647E-001, -1.00000000E-001, -2.82020118E-017
750, -7.64705882E-001, -1.00000000E-001, 2.50000000E-002
751, -7.35294118E-001, -1.00000000E-001, -2.70285224E-017
752, -7.05882353E-001, -1.00000000E-001, 2.50000000E-002
753, -6.76470588E-001, -1.00000000E-001, -2.58550330E-017
754, -6.47058824E-001, -1.00000000E-001, 2.50000000E-002
755, -6.17647059E-001, -1.00000000E-001, -2.31636605E-017
756, -5.88235294E-001, -1.00000000E-001, 2.50000000E-002
757, -5.58823529E-001, -1.00000000E-001, -1.85207242E-017
758, -5.29411765E-001, -1.00000000E-001, 2.50000000E-002
759, -5.00000000E-001, -1.00000000E-001, -1.56125113E-017
760, -4.70588235E-001, -1.00000000E-001, 2.50000000E-002
761, -4.41176471E-001, -1.00000000E-001, -1.48727027E-017
762, -4.11764706E-001, -1.00000000E-001, 2.50000000E-002
763, -3.82352941E-001, -1.00000000E-001, -1.10971281E-017
764, -3.52941176E-001, -1.00000000E-001, 2.50000000E-002
765, -3.23529412E-001, -1.00000000E-001, -7.75523436E-018
766, -2.94117647E-001, -1.00000000E-001, 2.50000000E-002
767, -2.64705882E-001, -1.00000000E-001, -7.44910669E-018
768, -2.35294118E-001, -1.00000000E-001, 2.50000000E-002
769, -2.05882353E-001, -1.00000000E-001, -7.14297902E-018
770, -1.76470588E-001, -1.00000000E-001, 2.50000000E-002
771, -1.47058824E-001, -1.00000000E-001, -5.10212787E-018
772, -1.17647059E-001, -1.00000000E-001, 2.50000000E-002
773, -8.82352941E-002, -1.00000000E-001, -3.06127672E-018
774, -5.88235294E-002, -1.00000000E-001, 2.50000000E-002
775, -2.94117647E-002, -1.00000000E-001, -1.02042557E-018
776, 1.32169408E-017, -1.00000000E-001, 2.50000000E-002
777, 2.94117647E-002, -1.00000000E-001, 1.02042557E-018
778, 5.88235294E-002, -1.00000000E-001, 2.50000000E-002
779, 8.82352941E-002, -1.00000000E-001, 3.06127672E-018
780, 1.17647059E-001, -1.00000000E-001, 2.50000000E-002
781, 1.47058824E-001, -1.00000000E-001, 5.10212787E-018
782, 1.76470588E-001, -1.00000000E-001, 2.50000000E-002
783, 2.05882353E-001, -1.00000000E-001, 7.14297902E-018
784, 2.35294118E-001, -1.00000000E-001, 2.50000000E-002
785, 2.64705882E-001, -1.00000000E-001, 1.09185536E-017
786, 2.94117647E-001, -1.00000000E-001, 2.50000000E-002
787, 3.23529412E-001, -1.00000000E-001, 1.46941283E-017
788, 3.52941176E-001, -1.00000000E-001, 2.50000000E-002
789, 3.82352941E-001, -1.00000000E-001, 1.50002559E-017
790, 4.11764706E-001, -1.00000000E-001, 2.50000000E-002
791, 4.41176471E-001, -1.00000000E-001, 1.53063836E-017
792, 4.70588235E-001, -1.00000000E-001, 2.50000000E-002
793, 5.00000000E-001, -1.00000000E-001, 1.90819582E-017
794, 5.29411765E-001, -1.00000000E-001, 2.50000000E-002
795, 5.58823529E-001, -1.00000000E-001, 2.11228094E-017
796, 5.88235294E-001, -1.00000000E-001, 2.50000000E-002
797, 6.17647059E-001, -1.00000000E-001, 1.96942136E-017
798, 6.47058824E-001, -1.00000000E-001, 2.50000000E-002
799, 6.76470588E-001, -1.00000000E-001, 2.00003413E-017
800, 7.05882353E-001, -1.00000000E-001, 2.50000000E-002
801, 7.35294118E-001, -1.00000000E-001, 2.37759159E-017
802, 7.64705882E-001, -1.00000000E-001, 2.50000000E-002
803, 7.94117647E-001, -1.00000000E-001, 2.75514905E-017
804, 8.23529412E-001, -1.00000000E-001, 2.50000000E-002
805, 8.52941176E-001, -1.00000000E-001, 2.78576182E-017
806, 8.82352941E-001, -1.00000000E-001, 2.50000000E-002
807, 9.11764706E-001, -1.00000000E-001, 2.98984693E-017
808, 9.41176471E-001, -1.00000000E-001, 2.50000000E-002
809, 9.70588235E-001, -1.00000000E-001, 3.36740439E-017
810, -9.41176471E-001, -1.00000000E-001, -2.50000000E-002
811, -8.82352941E-001, -1.00000000E-001, -2.50000000E-002
812, -8.23529412E-001, -1.00000000E-001, -2.50000000E-002
813, -7.64705882E-001, -1.00000000E-001, -2.50000000E-002
814, -7.05882353E-001, -1.00000000E-001, -2.50000000E-002
815, -6.47058824E-001, -1.00000000E-001, -2.50000000E-002
816, -5.88235294E-001, -1.00000000E-001, -2.50000000E-002
817, -5.29411765E-001, -1.00000000E-001, -2.50000000E-002
818, -4.70588235E-001, -1.00000000E-001, -2.50000000E-002
819, -4.11764706E-001, -1.00000000E-001, -2.50000000E-002
820, -3.52941176E-001, -1.00000000E-001, -2.50000000E-002
821, -2.94117647E-001, -1.00000000E-001, -2.50000000E-002
822, -2.35294118E-001, -1.00000000E-001, -2.50000000E-002
823, -1.76470588E-001, -1.00000000E-001, -2.50000000E-002
824, -1.17647059E-001, -1.00000000E-001, -2.50000000E-002
825, -5.88235294E-002, -1.00000000E-001, -2.50000000E-002
826, 1.32169408E-017, -1.00000000E-001, -2.50000000E-002
827, 5.88235294E-002, -1.00000000E-001, -2.50000000E-002
828, 1.17647059E-001, -1.00000000E-001, -2.50000000E-002
829, 1.76470588E-001, -1.00000000E-001, -2.50000000E-002
830, 2.35294118E-001, -1.00000000E-001, -2.50000000E-002
831, 2.94117647E-001, -1.00000000E-001, -2.50000000E-002
832, 3.52941176E-001, -1.00000000E-001, -2.50000000E-002
833, 4.11764706E-001, -1.00000000E-001, -2.50000000E-002
834, 4.70588235E-001, -1.00000000E-001, -2.50000000E-002
835, 5.29411765E-001, -1.00000000E-001, -2.50000000E-002
836, 5.88235294E-001, -1.00000000E-001, -2.50000000E-002
837, 6.47058824E-001, -1.00000000E-001, -2.50000000E-002
838, 7.05882353E-001, -1.00000000E-001, -2.50000000E-002
839, 7.64705882E-001, -1.00000000E-001, -2.50000000E-002
840, 8.23529412E-001, -1.00000000E-001, -2.50000000E-002
841, 8.82352941E-001, -1.00000000E-001, -2.50000000E-002
842, 9.41176471E-001, -1.00000000E-001, -2.50000000E-002
843, -9.41176471E-001, -3.92481186E-017, -2.72134745E-017
844, -8.82352941E-001, -5.76795556E-017, -2.49366500E-017
845, -8.23529412E-001, -6.50521303E-017, -1.73472348E-017
846, -7.64705882E-001, -5.98479599E-017, -1.86482774E-017
847, -7.05882353E-001, -4.33680869E-017, -1.99493200E-017
848, -6.47058824E-001, -7.19910243E-017, -1.51788304E-017
849, -5.88235294E-001, -5.89805982E-017, -1.30104261E-017
850, -5.29411765E-001, -6.33174069E-017, -7.37257477E-018
851, -4.70588235E-001, -8.15320034E-017, -9.54097912E-018
852, -4.11764706E-001, -5.63785130E-017, -9.97465999E-018
853, -3.52941176E-001, -6.24500451E-017, 0.00000000E+000
854, -2.94117647E-001, -7.45931095E-017, -8.67361738E-019
855, -2.35294118E-001, -5.20417043E-017, 0.00000000E+000
856, -1.76470588E-001, -7.11236625E-017, 1.73472348E-018
857, -1.17647059E-001, -9.19403442E-017, 5.20417043E-018
858, -5.88235294E-002, -9.71445147E-017, 9.54097912E-018
859, 0.00000000E+000, -7.63278329E-017, 1.04083409E-017
860, 5.88235294E-002, -9.71445147E-017, 1.21430643E-017
861, 1.17647059E-001, -9.19403442E-017, 1.47451495E-017
862, 1.76470588E-001, -8.15320034E-017, 1.47451495E-017
863, 2.35294118E-001, -6.59194921E-017, 2.08166817E-017
864, 2.94117647E-001, -9.36750677E-017, 2.08166817E-017
865, 3.52941176E-001, -7.63278329E-017, 2.25514052E-017
866, 4.11764706E-001, -7.63278329E-017, 2.25514052E-017
867, 4.70588235E-001, -9.02056208E-017, 2.60208521E-017
868, 5.29411765E-001, -7.63278329E-017, 2.77555756E-017
869, 5.88235294E-001, -8.67361738E-017, 3.12250226E-017
870, 6.47058824E-001, -1.00613962E-016, 3.81639165E-017
871, 7.05882353E-001, -7.63278329E-017, 3.81639165E-017
872, 7.64705882E-001, -9.02056208E-017, 4.16333634E-017
873, 8.23529412E-001, -8.67361738E-017, 4.16333634E-017
874, 8.82352941E-001, -9.71445147E-017, 4.33680869E-017
875, 9.41176471E-001, -7.97972799E-017, 4.33680869E-017
876, -9.41176471E-001, -4.04407410E-017, -2.50000000E-002
877, -9.70588235E-001, -5.43185288E-017, -2.74845251E-017
878, -9.41176471E-001, 5.00000000E-002, -3.03672273E-017
879, -9.41176471E-001, -5.43185288E-017, 2.50000000E-002
880, -8.82352941E-001, -6.35342473E-017, -2.50000000E-002
881, -9.11764706E-001, -4.84638371E-017, -2.60750622E-017
882, -8.82352941E-001, 5.00000000E-002, -2.69073469E-017
883, -8.82352941E-001, -6.35342473E-017, 2.50000000E-002
884, -8.23529412E-001, -6.72205347E-017, -2.50000000E-002
885, -8.52941176E-001, -6.13658430E-017, -2.11419424E-017
886, -8.23529412E-001, 5.00000000E-002, -2.23090541E-017
887, -8.23529412E-001, -6.72205347E-017, 2.50000000E-002
888, -7.64705882E-001, -6.46184495E-017, -2.50000000E-002
889, -7.94117647E-001, -6.24500451E-017, -1.79977561E-017
890, -7.64705882E-001, 5.00000000E-002, -2.25896711E-017
891, -7.64705882E-001, -6.46184495E-017, 2.50000000E-002
892, -7.05882353E-001, -4.25007252E-017, -2.50000000E-002
893, -7.35294118E-001, -5.16080234E-017, -1.92987987E-017
894, -7.05882353E-001, 5.00000000E-002, -2.07018838E-017
895, -7.05882353E-001, -5.63785130E-017, 2.50000000E-002
896, -6.47058824E-001, -7.76288755E-017, -2.50000000E-002
897, -6.76470588E-001, -5.76795556E-017, -1.75640752E-017
898, -6.47058824E-001, 5.00000000E-002, -1.79467348E-017
899, -6.47058824E-001, -7.06899816E-017, 2.50000000E-002
900, -5.88235294E-001, -6.41847686E-017, -2.50000000E-002
901, -6.17647059E-001, -6.54858112E-017, -1.40946282E-017
902, -5.88235294E-001, 5.00000000E-002, -1.58421070E-017
903, -5.88235294E-001, -6.41847686E-017, 2.50000000E-002
904, -5.29411765E-001, -6.63531730E-017, -2.50000000E-002
905, -5.58823529E-001, -6.11490025E-017, -1.01915004E-017
906, -5.29411765E-001, 5.00000000E-002, -1.46048410E-017
907, -5.29411765E-001, -5.94142791E-017, 2.50000000E-002
908, -4.70588235E-001, -7.54604712E-017, -2.50000000E-002
909, -5.00000000E-001, -7.24247051E-017, -8.45677695E-018
910, -4.70588235E-001, 5.00000000E-002, -1.29338942E-017
911, -4.70588235E-001, -8.23993651E-017, 2.50000000E-002
912, -4.11764706E-001, -6.98226199E-017, -2.50000000E-002
913, -4.41176471E-001, -6.89552582E-017, -9.75781955E-018
914, -4.11764706E-001, 5.00000000E-002, -1.25639899E-017
915, -4.11764706E-001, -4.90059382E-017, 2.50000000E-002
916, -3.52941176E-001, -6.59194921E-017, -2.50000000E-002
917, -3.82352941E-001, -5.94142791E-017, -4.98732999E-018
918, -3.52941176E-001, 5.00000000E-002, -7.85727692E-018
919, -3.52941176E-001, -5.89805982E-017, 2.50000000E-002
920, -2.94117647E-001, -7.89299182E-017, -2.50000000E-002
921, -3.23529412E-001, -6.85215773E-017, -4.33680869E-019
922, -2.94117647E-001, 5.00000000E-002, -7.27053222E-018
923, -2.94117647E-001, -7.89299182E-017, 2.50000000E-002
924, -2.35294118E-001, -5.37764278E-017, -2.50000000E-002
925, -2.64705882E-001, -6.33174069E-017, -4.33680869E-019
926, -2.35294118E-001, 5.00000000E-002, -4.08170230E-018
927, -2.35294118E-001, -5.37764278E-017, 2.50000000E-002
928, -1.76470588E-001, -7.02563008E-017, -2.50000000E-002
929, -2.05882353E-001, -6.15826834E-017, 8.67361738E-019
930, -1.76470588E-001, 5.00000000E-002, -2.19391498E-018
931, -1.76470588E-001, -7.02563008E-017, 2.50000000E-002
932, -1.17647059E-001, -8.76035355E-017, -2.50000000E-002
933, -1.47058824E-001, -8.15320034E-017, 3.46944695E-018
934, -1.17647059E-001, 5.00000000E-002, 5.61234066E-019
935, -1.17647059E-001, -8.76035355E-017, 2.50000000E-002
936, -5.88235294E-002, -9.02056208E-017, -2.50000000E-002
937, -8.82352941E-002, -9.45424294E-017, 7.37257477E-018
938, -5.88235294E-002, 5.00000000E-002, 3.75006398E-018
939, -5.88235294E-002, -9.02056208E-017, 2.50000000E-002
940, 0.00000000E+000, -7.28583860E-017, -2.50000000E-002
941, -2.94117647E-002, -8.67361738E-017, 9.97465999E-018
942, 1.32169408E-017, 5.00000000E-002, 5.20417043E-018
943, 0.00000000E+000, -7.28583860E-017, 2.50000000E-002
944, 5.88235294E-002, -9.02056208E-017, -2.50000000E-002
945, 2.94117647E-002, -8.67361738E-017, 1.12757026E-017
946, 5.88235294E-002, 5.00000000E-002, 7.09195774E-018
947, 5.88235294E-002, -9.02056208E-017, 2.50000000E-002
948, 1.17647059E-001, -8.76035355E-017, -2.50000000E-002
949, 8.82352941E-002, -9.45424294E-017, 1.34441069E-017
950, 1.17647059E-001, 5.00000000E-002, 9.41342592E-018
951, 1.17647059E-001, -8.76035355E-017, 2.50000000E-002
952, 1.76470588E-001, -7.54604712E-017, -2.50000000E-002
953, 1.47058824E-001, -8.67361738E-017, 1.47451495E-017
954, 1.76470588E-001, 5.00000000E-002, 1.04338515E-017
955, 1.76470588E-001, -7.54604712E-017, 2.50000000E-002
956, 2.35294118E-001, -6.07153217E-017, -2.50000000E-002
957, 2.05882353E-001, -7.37257477E-017, 1.77809156E-017
958, 2.35294118E-001, 5.00000000E-002, 1.44900432E-017
959, 2.35294118E-001, -6.07153217E-017, 2.50000000E-002
960, 2.94117647E-001, -8.84708973E-017, -2.50000000E-002
961, 2.64705882E-001, -7.97972799E-017, 2.08166817E-017
962, 2.94117647E-001, 5.00000000E-002, 1.37757453E-017
963, 2.94117647E-001, -8.84708973E-017, 2.50000000E-002
964, 3.52941176E-001, -6.59194921E-017, -2.50000000E-002
965, 3.23529412E-001, -8.50014503E-017, 2.16840434E-017
966, 3.52941176E-001, 5.00000000E-002, 1.56635326E-017
967, 3.52941176E-001, -7.28583860E-017, 2.50000000E-002
968, 4.11764706E-001, -5.89805982E-017, -2.50000000E-002
969, 3.82352941E-001, -7.63278329E-017, 2.25514052E-017
970, 4.11764706E-001, 5.00000000E-002, 1.84186816E-017
971, 4.11764706E-001, -7.97972799E-017, 2.50000000E-002
972, 4.70588235E-001, -8.67361738E-017, -2.50000000E-002
973, 4.41176471E-001, -8.32667268E-017, 2.42861287E-017
974, 4.70588235E-001, 5.00000000E-002, 2.11738307E-017
975, 4.70588235E-001, -7.97972799E-017, 2.50000000E-002
976, 5.29411765E-001, -6.59194921E-017, -2.50000000E-002
977, 5.00000000E-001, -8.32667268E-017, 2.68882139E-017
978, 5.29411765E-001, 5.00000000E-002, 2.13268945E-017
979, 5.29411765E-001, -7.28583860E-017, 2.50000000E-002
980, 5.88235294E-001, -7.80625564E-017, -2.50000000E-002
981, 5.58823529E-001, -8.15320034E-017, 2.94902991E-017
982, 5.88235294E-001, 5.00000000E-002, 2.58167670E-017
983, 5.88235294E-001, -7.80625564E-017, 2.50000000E-002
984, 6.47058824E-001, -8.50014503E-017, -2.50000000E-002
985, 6.17647059E-001, -9.36750677E-017, 3.46944695E-017
986, 6.47058824E-001, 5.00000000E-002, 3.20413630E-017
987, 6.47058824E-001, -9.19403442E-017, 2.50000000E-002
988, 7.05882353E-001, -7.28583860E-017, -2.50000000E-002
989, 6.76470588E-001, -8.84708973E-017, 3.81639165E-017
990, 7.05882353E-001, 5.00000000E-002, 3.30617886E-017
991, 7.05882353E-001, -5.89805982E-017, 2.50000000E-002
992, 7.64705882E-001, -7.97972799E-017, -2.50000000E-002
993, 7.35294118E-001, -8.32667268E-017, 3.98986399E-017
994, 7.64705882E-001, 5.00000000E-002, 3.40822142E-017
995, 7.64705882E-001, -7.97972799E-017, 2.50000000E-002
996, 8.23529412E-001, -7.80625564E-017, -2.50000000E-002
997, 7.94117647E-001, -8.84708973E-017, 4.16333634E-017
998, 8.23529412E-001, 5.00000000E-002, 3.51026397E-017
999, 8.23529412E-001, -7.80625564E-017, 2.50000000E-002
1000, 8.82352941E-001, -8.32667268E-017, -2.50000000E-002
1001, 8.52941176E-001, -9.19403442E-017, 4.25007252E-017
1002, 8.82352941E-001, 5.00000000E-002, 3.69904271E-017
1003, 8.82352941E-001, -8.32667268E-017, 2.50000000E-002
1004, 9.41176471E-001, -7.45931095E-017, -2.50000000E-002
1005, 9.11764706E-001, -8.84708973E-017, 4.33680869E-017
1006, 9.41176471E-001, 5.00000000E-002, 3.80108526E-017
1007, 9.41176471E-001, -6.07153217E-017, 2.50000000E-002
1008, 9.70588235E-001, -8.15320034E-017, 4.59701721E-017
1009, -9.41176471E-001, -5.00000000E-002, -2.94998656E-017
1010, -8.82352941E-001, -5.00000000E-002, -2.86420703E-017
1011, -8.23529412E-001, -5.00000000E-002, -2.36100967E-017
1012, -7.64705882E-001, -5.00000000E-002, -2.25896711E-017
1013, -7.05882353E-001, -5.00000000E-002, -2.37376499E-017
1014, -6.47058824E-001, -5.00000000E-002, -1.96814583E-017
1015, -5.88235294E-001, -5.00000000E-002, -1.75768305E-017
1016, -5.29411765E-001, -5.00000000E-002, -1.11353941E-017
1017, -4.70588235E-001, -5.00000000E-002, -1.29338942E-017
1018, -4.11764706E-001, -5.00000000E-002, -1.16966281E-017
1019, -3.52941176E-001, -5.00000000E-002, -4.38782997E-018
1020, -2.94117647E-001, -5.00000000E-002, -3.80108526E-018
1021, -2.35294118E-001, -5.00000000E-002, -4.08170230E-018
1022, -1.76470588E-001, -5.00000000E-002, -2.19391498E-018
1023, -1.17647059E-001, -5.00000000E-002, 5.61234066E-019
1024, -5.88235294E-002, -5.00000000E-002, 3.75006398E-018
1025, 1.32169408E-017, -5.00000000E-002, 5.20417043E-018
1026, 5.88235294E-002, -5.00000000E-002, 7.09195774E-018
1027, 1.17647059E-001, -5.00000000E-002, 9.41342592E-018
1028, 1.76470588E-001, -5.00000000E-002, 1.04338515E-017
1029, 2.35294118E-001, -5.00000000E-002, 1.44900432E-017
1030, 2.94117647E-001, -5.00000000E-002, 1.72451922E-017
1031, 3.52941176E-001, -5.00000000E-002, 1.91329795E-017
1032, 4.11764706E-001, -5.00000000E-002, 1.84186816E-017
1033, 4.70588235E-001, -5.00000000E-002, 2.11738307E-017
1034, 5.29411765E-001, -5.00000000E-002, 2.47963415E-017
1035, 5.88235294E-001, -5.00000000E-002, 2.58167670E-017
1036, 6.47058824E-001, -5.00000000E-002, 2.85719161E-017
1037, 7.05882353E-001, -5.00000000E-002, 2.95923416E-017
1038, 7.64705882E-001, -5.00000000E-002, 3.40822142E-017
1039, 8.23529412E-001, -5.00000000E-002, 3.51026397E-017
1040, 8.82352941E-001, -5.00000000E-002, 3.52557036E-017
1041, 9.41176471E-001, -5.00000000E-002, 3.80108526E-017
**
** Elements ++++++++++++++++++++++++++++++++++++++++++++++++
**
*Element, Type=C3D20, Elset=Solid_part-1
1, 1, 9, 301, 82, 298, 572, 843, 577, 10, 335, 334, 115, 573, 877, 878,
611, 300, 575, 876, 677
2, 298, 572, 843, 577, 8, 225, 471, 260, 573, 877, 878, 611, 226, 538, 536,
294, 299, 574, 879, 610
3, 82, 301, 302, 83, 577, 843, 844, 578, 334, 337, 336, 116, 878, 881, 882,
613, 677, 876, 880, 678
4, 577, 843, 844, 578, 260, 471, 470, 259, 878, 881, 882, 613, 536, 537, 534,
293, 610, 879, 883, 612
5, 83, 302, 303, 84, 578, 844, 845, 579, 336, 339, 338, 117, 882, 885, 886,
615, 678, 880, 884, 679
6, 578, 844, 845, 579, 259, 470, 469, 258, 882, 885, 886, 615, 534, 535, 532,
292, 612, 883, 887, 614
7, 84, 303, 304, 85, 579, 845, 846, 580, 338, 341, 340, 118, 886, 889, 890,
617, 679, 884, 888, 680
8, 579, 845, 846, 580, 258, 469, 468, 257, 886, 889, 890, 617, 532, 533, 530,
291, 614, 887, 891, 616
9, 85, 304, 305, 86, 580, 846, 847, 581, 340, 343, 342, 119, 890, 893, 894,
619, 680, 888, 892, 681
10, 580, 846, 847, 581, 257, 468, 467, 256, 890, 893, 894, 619, 530, 531, 528,
290, 616, 891, 895, 618
11, 86, 305, 306, 87, 581, 847, 848, 582, 342, 345, 344, 120, 894, 897, 898,
621, 681, 892, 896, 682
12, 581, 847, 848, 582, 256, 467, 466, 255, 894, 897, 898, 621, 528, 529, 526,
289, 618, 895, 899, 620
13, 87, 306, 307, 88, 582, 848, 849, 583, 344, 347, 346, 121, 898, 901, 902,
623, 682, 896, 900, 683
14, 582, 848, 849, 583, 255, 466, 465, 254, 898, 901, 902, 623, 526, 527, 524,
288, 620, 899, 903, 622
15, 88, 307, 308, 89, 583, 849, 850, 584, 346, 349, 348, 122, 902, 905, 906,
625, 683, 900, 904, 684
16, 583, 849, 850, 584, 254, 465, 464, 253, 902, 905, 906, 625, 524, 525, 522,
287, 622, 903, 907, 624
17, 89, 308, 309, 90, 584, 850, 851, 585, 348, 351, 350, 123, 906, 909, 910,
627, 684, 904, 908, 685
18, 584, 850, 851, 585, 253, 464, 463, 252, 906, 909, 910, 627, 522, 523, 520,
286, 624, 907, 911, 626
19, 90, 309, 310, 91, 585, 851, 852, 586, 350, 353, 352, 124, 910, 913, 914,
629, 685, 908, 912, 686
20, 585, 851, 852, 586, 252, 463, 462, 251, 910, 913, 914, 629, 520, 521, 518,
285, 626, 911, 915, 628
21, 91, 310, 311, 92, 586, 852, 853, 587, 352, 355, 354, 125, 914, 917, 918,
631, 686, 912, 916, 687
22, 586, 852, 853, 587, 251, 462, 461, 250, 914, 917, 918, 631, 518, 519, 516,
284, 628, 915, 919, 630
23, 92, 311, 312, 93, 587, 853, 854, 588, 354, 357, 356, 126, 918, 921, 922,
633, 687, 916, 920, 688
24, 587, 853, 854, 588, 250, 461, 460, 249, 918, 921, 922, 633, 516, 517, 514,
283, 630, 919, 923, 632
25, 93, 312, 313, 94, 588, 854, 855, 589, 356, 359, 358, 127, 922, 925, 926,
635, 688, 920, 924, 689
26, 588, 854, 855, 589, 249, 460, 459, 248, 922, 925, 926, 635, 514, 515, 512,
282, 632, 923, 927, 634
27, 94, 313, 314, 95, 589, 855, 856, 590, 358, 361, 360, 128, 926, 929, 930,
637, 689, 924, 928, 690
28, 589, 855, 856, 590, 248, 459, 458, 247, 926, 929, 930, 637, 512, 513, 510,
281, 634, 927, 931, 636
29, 95, 314, 315, 96, 590, 856, 857, 591, 360, 363, 362, 129, 930, 933, 934,
639, 690, 928, 932, 691
30, 590, 856, 857, 591, 247, 458, 457, 246, 930, 933, 934, 639, 510, 511, 508,
280, 636, 931, 935, 638
31, 96, 315, 316, 97, 591, 857, 858, 592, 362, 365, 364, 130, 934, 937, 938,
641, 691, 932, 936, 692
32, 591, 857, 858, 592, 246, 457, 456, 245, 934, 937, 938, 641, 508, 509, 506,
279, 638, 935, 939, 640
33, 97, 316, 317, 98, 592, 858, 859, 593, 364, 367, 366, 131, 938, 941, 942,
643, 692, 936, 940, 693
34, 592, 858, 859, 593, 245, 456, 455, 244, 938, 941, 942, 643, 506, 507, 504,
278, 640, 939, 943, 642
35, 98, 317, 318, 99, 593, 859, 860, 594, 366, 369, 368, 132, 942, 945, 946,
645, 693, 940, 944, 694
36, 593, 859, 860, 594, 244, 455, 454, 243, 942, 945, 946, 645, 504, 505, 502,
277, 642, 943, 947, 644
37, 99, 318, 319, 100, 594, 860, 861, 595, 368, 371, 370, 133, 946, 949, 950,
647, 694, 944, 948, 695
38, 594, 860, 861, 595, 243, 454, 453, 242, 946, 949, 950, 647, 502, 503, 500,
276, 644, 947, 951, 646
39, 100, 319, 320, 101, 595, 861, 862, 596, 370, 373, 372, 134, 950, 953, 954,
649, 695, 948, 952, 696
40, 595, 861, 862, 596, 242, 453, 452, 241, 950, 953, 954, 649, 500, 501, 498,
275, 646, 951, 955, 648
41, 101, 320, 321, 102, 596, 862, 863, 597, 372, 375, 374, 135, 954, 957, 958,
651, 696, 952, 956, 697
42, 596, 862, 863, 597, 241, 452, 451, 240, 954, 957, 958, 651, 498, 499, 496,
274, 648, 955, 959, 650
43, 102, 321, 322, 103, 597, 863, 864, 598, 374, 377, 376, 136, 958, 961, 962,
653, 697, 956, 960, 698
44, 597, 863, 864, 598, 240, 451, 450, 239, 958, 961, 962, 653, 496, 497, 494,
273, 650, 959, 963, 652
45, 103, 322, 323, 104, 598, 864, 865, 599, 376, 379, 378, 137, 962, 965, 966,
655, 698, 960, 964, 699
46, 598, 864, 865, 599, 239, 450, 449, 238, 962, 965, 966, 655, 494, 495, 492,
272, 652, 963, 967, 654
47, 104, 323, 324, 105, 599, 865, 866, 600, 378, 381, 380, 138, 966, 969, 970,
657, 699, 964, 968, 700
48, 599, 865, 866, 600, 238, 449, 448, 237, 966, 969, 970, 657, 492, 493, 490,
271, 654, 967, 971, 656
49, 105, 324, 325, 106, 600, 866, 867, 601, 380, 383, 382, 139, 970, 973, 974,
659, 700, 968, 972, 701
50, 600, 866, 867, 601, 237, 448, 447, 236, 970, 973, 974, 659, 490, 491, 488,
270, 656, 971, 975, 658
51, 106, 325, 326, 107, 601, 867, 868, 602, 382, 385, 384, 140, 974, 977, 978,
661, 701, 972, 976, 702
52, 601, 867, 868, 602, 236, 447, 446, 235, 974, 977, 978, 661, 488, 489, 486,
269, 658, 975, 979, 660
53, 107, 326, 327, 108, 602, 868, 869, 603, 384, 387, 386, 141, 978, 981, 982,
663, 702, 976, 980, 703
54, 602, 868, 869, 603, 235, 446, 445, 234, 978, 981, 982, 663, 486, 487, 484,
268, 660, 979, 983, 662
55, 108, 327, 328, 109, 603, 869, 870, 604, 386, 389, 388, 142, 982, 985, 986,
665, 703, 980, 984, 704
56, 603, 869, 870, 604, 234, 445, 444, 233, 982, 985, 986, 665, 484, 485, 482,
267, 662, 983, 987, 664
57, 109, 328, 329, 110, 604, 870, 871, 605, 388, 391, 390, 143, 986, 989, 990,
667, 704, 984, 988, 705
58, 604, 870, 871, 605, 233, 444, 443, 232, 986, 989, 990, 667, 482, 483, 480,
266, 664, 987, 991, 666
59, 110, 329, 330, 111, 605, 871, 872, 606, 390, 393, 392, 144, 990, 993, 994,
669, 705, 988, 992, 706
60, 605, 871, 872, 606, 232, 443, 442, 231, 990, 993, 994, 669, 480, 481, 478,
265, 666, 991, 995, 668
61, 111, 330, 331, 112, 606, 872, 873, 607, 392, 395, 394, 145, 994, 997, 998,
671, 706, 992, 996, 707
62, 606, 872, 873, 607, 231, 442, 441, 230, 994, 997, 998, 671, 478, 479, 476,
264, 668, 995, 999, 670
63, 112, 331, 332, 113, 607, 873, 874, 608, 394, 397, 396, 146, 998, 1001, 1002,
673, 707, 996, 1000, 708
64, 607, 873, 874, 608, 230, 441, 440, 229, 998, 1001, 1002, 673, 476, 477, 474,
263, 670, 999, 1003, 672
65, 113, 332, 333, 114, 608, 874, 875, 609, 396, 399, 398, 147, 1002, 1005, 1006,
675, 708, 1000, 1004, 709
66, 608, 874, 875, 609, 229, 440, 439, 228, 1002, 1005, 1006, 675, 474, 475, 472,
262, 672, 1003, 1007, 674
67, 114, 333, 79, 4, 609, 875, 434, 155, 398, 400, 80, 148, 1006, 1008, 435,
676, 709, 1004, 436, 156
68, 609, 875, 434, 155, 228, 439, 152, 6, 1006, 1008, 435, 676, 472, 473, 153,
261, 674, 1007, 437, 157
69, 9, 2, 12, 301, 572, 295, 710, 843, 11, 45, 401, 335, 576, 743, 1009,
877, 575, 297, 810, 876
70, 572, 295, 710, 843, 225, 7, 190, 471, 576, 743, 1009, 877, 227, 224, 571,
538, 574, 296, 744, 879
71, 301, 12, 13, 302, 843, 710, 711, 844, 401, 46, 402, 337, 1009, 745, 1010,
881, 876, 810, 811, 880
72, 843, 710, 711, 844, 471, 190, 189, 470, 1009, 745, 1010, 881, 571, 223, 570,
537, 879, 744, 746, 883
73, 302, 13, 14, 303, 844, 711, 712, 845, 402, 47, 403, 339, 1010, 747, 1011,
885, 880, 811, 812, 884
74, 844, 711, 712, 845, 470, 189, 188, 469, 1010, 747, 1011, 885, 570, 222, 569,
535, 883, 746, 748, 887
75, 303, 14, 15, 304, 845, 712, 713, 846, 403, 48, 404, 341, 1011, 749, 1012,
889, 884, 812, 813, 888
76, 845, 712, 713, 846, 469, 188, 187, 468, 1011, 749, 1012, 889, 569, 221, 568,
533, 887, 748, 750, 891
77, 304, 15, 16, 305, 846, 713, 714, 847, 404, 49, 405, 343, 1012, 751, 1013,
893, 888, 813, 814, 892
78, 846, 713, 714, 847, 468, 187, 186, 467, 1012, 751, 1013, 893, 568, 220, 567,
531, 891, 750, 752, 895
79, 305, 16, 17, 306, 847, 714, 715, 848, 405, 50, 406, 345, 1013, 753, 1014,
897, 892, 814, 815, 896
80, 847, 714, 715, 848, 467, 186, 185, 466, 1013, 753, 1014, 897, 567, 219, 566,
529, 895, 752, 754, 899
81, 306, 17, 18, 307, 848, 715, 716, 849, 406, 51, 407, 347, 1014, 755, 1015,
901, 896, 815, 816, 900
82, 848, 715, 716, 849, 466, 185, 184, 465, 1014, 755, 1015, 901, 566, 218, 565,
527, 899, 754, 756, 903
83, 307, 18, 19, 308, 849, 716, 717, 850, 407, 52, 408, 349, 1015, 757, 1016,
905, 900, 816, 817, 904
84, 849, 716, 717, 850, 465, 184, 183, 464, 1015, 757, 1016, 905, 565, 217, 564,
525, 903, 756, 758, 907
85, 308, 19, 20, 309, 850, 717, 718, 851, 408, 53, 409, 351, 1016, 759, 1017,
909, 904, 817, 818, 908
86, 850, 717, 718, 851, 464, 183, 182, 463, 1016, 759, 1017, 909, 564, 216, 563,
523, 907, 758, 760, 911
87, 309, 20, 21, 310, 851, 718, 719, 852, 409, 54, 410, 353, 1017, 761, 1018,
913, 908, 818, 819, 912
88, 851, 718, 719, 852, 463, 182, 181, 462, 1017, 761, 1018, 913, 563, 215, 562,
521, 911, 760, 762, 915
89, 310, 21, 22, 311, 852, 719, 720, 853, 410, 55, 411, 355, 1018, 763, 1019,
917, 912, 819, 820, 916
90, 852, 719, 720, 853, 462, 181, 180, 461, 1018, 763, 1019, 917, 562, 214, 561,
519, 915, 762, 764, 919
91, 311, 22, 23, 312, 853, 720, 721, 854, 411, 56, 412, 357, 1019, 765, 1020,
921, 916, 820, 821, 920
92, 853, 720, 721, 854, 461, 180, 179, 460, 1019, 765, 1020, 921, 561, 213, 560,
517, 919, 764, 766, 923
93, 312, 23, 24, 313, 854, 721, 722, 855, 412, 57, 413, 359, 1020, 767, 1021,
925, 920, 821, 822, 924
94, 854, 721, 722, 855, 460, 179, 178, 459, 1020, 767, 1021, 925, 560, 212, 559,
515, 923, 766, 768, 927
95, 313, 24, 25, 314, 855, 722, 723, 856, 413, 58, 414, 361, 1021, 769, 1022,
929, 924, 822, 823, 928
96, 855, 722, 723, 856, 459, 178, 177, 458, 1021, 769, 1022, 929, 559, 211, 558,
513, 927, 768, 770, 931
97, 314, 25, 26, 315, 856, 723, 724, 857, 414, 59, 415, 363, 1022, 771, 1023,
933, 928, 823, 824, 932
98, 856, 723, 724, 857, 458, 177, 176, 457, 1022, 771, 1023, 933, 558, 210, 557,
511, 931, 770, 772, 935
99, 315, 26, 27, 316, 857, 724, 725, 858, 415, 60, 416, 365, 1023, 773, 1024,
937, 932, 824, 825, 936
100, 857, 724, 725, 858, 457, 176, 175, 456, 1023, 773, 1024, 937, 557, 209, 556,
509, 935, 772, 774, 939
101, 316, 27, 28, 317, 858, 725, 726, 859, 416, 61, 417, 367, 1024, 775, 1025,
941, 936, 825, 826, 940
102, 858, 725, 726, 859, 456, 175, 174, 455, 1024, 775, 1025, 941, 556, 208, 555,
507, 939, 774, 776, 943
103, 317, 28, 29, 318, 859, 726, 727, 860, 417, 62, 418, 369, 1025, 777, 1026,
945, 940, 826, 827, 944
104, 859, 726, 727, 860, 455, 174, 173, 454, 1025, 777, 1026, 945, 555, 207, 554,
505, 943, 776, 778, 947
105, 318, 29, 30, 319, 860, 727, 728, 861, 418, 63, 419, 371, 1026, 779, 1027,
949, 944, 827, 828, 948
106, 860, 727, 728, 861, 454, 173, 172, 453, 1026, 779, 1027, 949, 554, 206, 553,
503, 947, 778, 780, 951
107, 319, 30, 31, 320, 861, 728, 729, 862, 419, 64, 420, 373, 1027, 781, 1028,
953, 948, 828, 829, 952
108, 861, 728, 729, 862, 453, 172, 171, 452, 1027, 781, 1028, 953, 553, 205, 552,
501, 951, 780, 782, 955
109, 320, 31, 32, 321, 862, 729, 730, 863, 420, 65, 421, 375, 1028, 783, 1029,
957, 952, 829, 830, 956
110, 862, 729, 730, 863, 452, 171, 170, 451, 1028, 783, 1029, 957, 552, 204, 551,
499, 955, 782, 784, 959
111, 321, 32, 33, 322, 863, 730, 731, 864, 421, 66, 422, 377, 1029, 785, 1030,
961, 956, 830, 831, 960
112, 863, 730, 731, 864, 451, 170, 169, 450, 1029, 785, 1030, 961, 551, 203, 550,
497, 959, 784, 786, 963
113, 322, 33, 34, 323, 864, 731, 732, 865, 422, 67, 423, 379, 1030, 787, 1031,
965, 960, 831, 832, 964
114, 864, 731, 732, 865, 450, 169, 168, 449, 1030, 787, 1031, 965, 550, 202, 549,
495, 963, 786, 788, 967
115, 323, 34, 35, 324, 865, 732, 733, 866, 423, 68, 424, 381, 1031, 789, 1032,
969, 964, 832, 833, 968
116, 865, 732, 733, 866, 449, 168, 167, 448, 1031, 789, 1032, 969, 549, 201, 548,
493, 967, 788, 790, 971
117, 324, 35, 36, 325, 866, 733, 734, 867, 424, 69, 425, 383, 1032, 791, 1033,
973, 968, 833, 834, 972
118, 866, 733, 734, 867, 448, 167, 166, 447, 1032, 791, 1033, 973, 548, 200, 547,
491, 971, 790, 792, 975
119, 325, 36, 37, 326, 867, 734, 735, 868, 425, 70, 426, 385, 1033, 793, 1034,
977, 972, 834, 835, 976
120, 867, 734, 735, 868, 447, 166, 165, 446, 1033, 793, 1034, 977, 547, 199, 546,
489, 975, 792, 794, 979
121, 326, 37, 38, 327, 868, 735, 736, 869, 426, 71, 427, 387, 1034, 795, 1035,
981, 976, 835, 836, 980
122, 868, 735, 736, 869, 446, 165, 164, 445, 1034, 795, 1035, 981, 546, 198, 545,
487, 979, 794, 796, 983
123, 327, 38, 39, 328, 869, 736, 737, 870, 427, 72, 428, 389, 1035, 797, 1036,
985, 980, 836, 837, 984
124, 869, 736, 737, 870, 445, 164, 163, 444, 1035, 797, 1036, 985, 545, 197, 544,
485, 983, 796, 798, 987
125, 328, 39, 40, 329, 870, 737, 738, 871, 428, 73, 429, 391, 1036, 799, 1037,
989, 984, 837, 838, 988
126, 870, 737, 738, 871, 444, 163, 162, 443, 1036, 799, 1037, 989, 544, 196, 543,
483, 987, 798, 800, 991
127, 329, 40, 41, 330, 871, 738, 739, 872, 429, 74, 430, 393, 1037, 801, 1038,
993, 988, 838, 839, 992
128, 871, 738, 739, 872, 443, 162, 161, 442, 1037, 801, 1038, 993, 543, 195, 542,
481, 991, 800, 802, 995
129, 330, 41, 42, 331, 872, 739, 740, 873, 430, 75, 431, 395, 1038, 803, 1039,
997, 992, 839, 840, 996
130, 872, 739, 740, 873, 442, 161, 160, 441, 1038, 803, 1039, 997, 542, 194, 541,
479, 995, 802, 804, 999
131, 331, 42, 43, 332, 873, 740, 741, 874, 431, 76, 432, 397, 1039, 805, 1040,
1001, 996, 840, 841, 1000
132, 873, 740, 741, 874, 441, 160, 159, 440, 1039, 805, 1040, 1001, 541, 193, 540,
477, 999, 804, 806, 1003
133, 332, 43, 44, 333, 874, 741, 742, 875, 432, 77, 433, 399, 1040, 807, 1041,
1005, 1000, 841, 842, 1004
134, 874, 741, 742, 875, 440, 159, 158, 439, 1040, 807, 1041, 1005, 540, 192, 539,
475, 1003, 806, 808, 1007
135, 333, 44, 3, 79, 875, 742, 149, 434, 433, 78, 81, 400, 1041, 809, 438,
1008, 1004, 842, 150, 436
136, 875, 742, 149, 434, 439, 158, 5, 152, 1041, 809, 438, 1008, 539, 191, 154,
473, 1007, 808, 151, 437
**
** Node sets +++++++++++++++++++++++++++++++++++++++++++++++
**
*Nset, Nset=Internal_Selection-1_Fixed-1
3, 4, 5, 6, 79, 80, 81, 149, 150, 151, 152, 153, 154, 155, 156, 157, 
434, 435, 436, 437, 438
*Nset, Nset=Internal-1_Internal_Selection-1_Surface_Traction-1
1, 2, 7, 8, 9, 10, 11, 225, 226, 227, 295, 296, 297, 298, 299, 300, 
572, 573, 574, 575, 576
**
** Element sets ++++++++++++++++++++++++++++++++++++++++++++
**
*Elset, Elset=Internal_Selection-1_Solid_Section-1
Solid_part-1
*Elset, Elset=Internal-1_Internal_Selection-1_Surface_Traction-1_S3
1, 2, 69, 70
**
** Surfaces ++++++++++++++++++++++++++++++++++++++++++++++++
**
*Surface, Name=Internal_Selection-1_Surface_Traction-1, Type=Element
Internal-1_Internal_Selection-1_Surface_Traction-1_S3, S3
**
** Physical constants ++++++++++++++++++++++++++++++++++++++
**
**
** Coordinate systems ++++++++++++++++++++++++++++++++++++++
**
**
** Materials +++++++++++++++++++++++++++++++++++++++++++++++
**
*Material, Name=S235
*Density
7800
*Elastic
210000000000, 0.28
*Expansion, Zero=20
1.1E-05
*Conductivity
14
*Specific heat
440
**
** Sections ++++++++++++++++++++++++++++++++++++++++++++++++
**
*Solid section, Elset=Internal_Selection-1_Solid_Section-1, Material=S235
**
** Pre-tension sections ++++++++++++++++++++++++++++++++++++
**
**
** Constraints +++++++++++++++++++++++++++++++++++++++++++++
**
**
** Surface interactions ++++++++++++++++++++++++++++++++++++
**
**
** Contact pairs +++++++++++++++++++++++++++++++++++++++++++
**
**
** Amplitudes ++++++++++++++++++++++++++++++++++++++++++++++
**
**
** Initial conditions ++++++++++++++++++++++++++++++++++++++
**
**
** Steps +++++++++++++++++++++++++++++++++++++++++++++++++++
**
**
** Step-1 ++++++++++++++++++++++++++++++++++++++++++++++++++
**
*Step
*Static
**
** Controls ++++++++++++++++++++++++++++++++++++++++++++++++
**
**
** Output frequency ++++++++++++++++++++++++++++++++++++++++
**
**
** Boundary conditions +++++++++++++++++++++++++++++++++++++
**
*Boundary, op=New
** Name: Fixed-1
*Boundary
Internal_Selection-1_Fixed-1, 1, 6, 0
**
** Loads +++++++++++++++++++++++++++++++++++++++++++++++++++
**
*Cload, op=New
*Dload, op=New
** Name: Surface_Traction-1
*Cload
1, 2, 20.8333333333333
298, 2, 41.6666666666667
572, 2, 83.3333333333333
9, 2, 41.6666666666666
300, 2, -8.33333333E+001
573, 2, -1.66666667E+002
575, 2, -1.66666667E+002
10, 2, -8.33333333E+001
8, 2, 20.8333333333334
225, 2, 41.6666666666667
299, 2, -8.33333333E+001
226, 2, -8.33333333E+001
574, 2, -1.66666667E+002
295, 2, 41.6666666666666
2, 2, 20.8333333333333
576, 2, -1.66666667E+002
297, 2, -8.33333333E+001
11, 2, -8.33333333E+001
7, 2, 20.8333333333333
227, 2, -8.33333333E+001
296, 2, -8.33333333E+001
**
** Defined fields ++++++++++++++++++++++++++++++++++++++++++
**
**
** History outputs +++++++++++++++++++++++++++++++++++++++++
**
**
** Field outputs +++++++++++++++++++++++++++++++++++++++++++
**
*Node file
RF, U
*El file
S, E, NOE
**
** End step ++++++++++++++++++++++++++++++++++++++++++++++++
**
*End step
